** ============================================================
** L-Bracket with Fillet — CalculiX CCX input file
** ============================================================
** Geometry  : L-bracket, two 20x80mm legs, 10mm thick
**             Fillet radius R=8mm at inner corner
** Elements  : C3D8 hex, 4mm grid in X/Y, 2mm in Z
**             1278 nodes, 850 elements
** Units     : mm, N, MPa
** BCs       : Top face of vertical leg (y=80) fully fixed
** Load      : 500 N downward (-Y) on tip face (x=80)
**
** Analytical reference (at fillet root, nominal):
**   M = F * (LH - R) = 500 * 72 = 36000 N·mm
**   I = T * W³/12 = 10*20³/12 = 6666.7 mm⁴
**   sigma_nom = M*c/I = 36000*10/6666.7 = 54.0 MPa
**   Kt ≈ 1 + sqrt(W/2R) = 1 + sqrt(20/16) = 2.12
**   sigma_peak ≈ Kt * sigma_nom = 114.4 MPa
**   Steel FoS_nom=4.63  FoS_peak≈2.19
**   Al 6061 FoS_nom=5.11  FoS_peak≈2.41
**
** Note: set AppliedForceN=500 in values.yaml
**
** VALIDATION: sigma_nom=54.0 kt=2.12 sigma_peak=114.4
** VALIDATION: tip_disp=0.1280
** ============================================================

*NODE, NSET=NALL
       1,     0.0000,     0.0000,     0.0000
       2,     4.0000,     0.0000,     0.0000
       3,     8.0000,     0.0000,     0.0000
       4,    12.0000,     0.0000,     0.0000
       5,    16.0000,     0.0000,     0.0000
       6,    20.0000,     0.0000,     0.0000
       7,    24.0000,     0.0000,     0.0000
       8,    28.0000,     0.0000,     0.0000
       9,    32.0000,     0.0000,     0.0000
      10,    36.0000,     0.0000,     0.0000
      11,    40.0000,     0.0000,     0.0000
      12,    44.0000,     0.0000,     0.0000
      13,    48.0000,     0.0000,     0.0000
      14,    52.0000,     0.0000,     0.0000
      15,    56.0000,     0.0000,     0.0000
      16,    60.0000,     0.0000,     0.0000
      17,    64.0000,     0.0000,     0.0000
      18,    68.0000,     0.0000,     0.0000
      19,    72.0000,     0.0000,     0.0000
      20,    76.0000,     0.0000,     0.0000
      21,    80.0000,     0.0000,     0.0000
      22,     0.0000,     4.0000,     0.0000
      23,     4.0000,     4.0000,     0.0000
      24,     8.0000,     4.0000,     0.0000
      25,    12.0000,     4.0000,     0.0000
      26,    16.0000,     4.0000,     0.0000
      27,    20.0000,     4.0000,     0.0000
      28,    24.0000,     4.0000,     0.0000
      29,    28.0000,     4.0000,     0.0000
      30,    32.0000,     4.0000,     0.0000
      31,    36.0000,     4.0000,     0.0000
      32,    40.0000,     4.0000,     0.0000
      33,    44.0000,     4.0000,     0.0000
      34,    48.0000,     4.0000,     0.0000
      35,    52.0000,     4.0000,     0.0000
      36,    56.0000,     4.0000,     0.0000
      37,    60.0000,     4.0000,     0.0000
      38,    64.0000,     4.0000,     0.0000
      39,    68.0000,     4.0000,     0.0000
      40,    72.0000,     4.0000,     0.0000
      41,    76.0000,     4.0000,     0.0000
      42,    80.0000,     4.0000,     0.0000
      43,     0.0000,     8.0000,     0.0000
      44,     4.0000,     8.0000,     0.0000
      45,     8.0000,     8.0000,     0.0000
      46,    12.0000,     8.0000,     0.0000
      47,    16.0000,     8.0000,     0.0000
      48,    20.0000,     8.0000,     0.0000
      49,    24.0000,     8.0000,     0.0000
      50,    28.0000,     8.0000,     0.0000
      51,    32.0000,     8.0000,     0.0000
      52,    36.0000,     8.0000,     0.0000
      53,    40.0000,     8.0000,     0.0000
      54,    44.0000,     8.0000,     0.0000
      55,    48.0000,     8.0000,     0.0000
      56,    52.0000,     8.0000,     0.0000
      57,    56.0000,     8.0000,     0.0000
      58,    60.0000,     8.0000,     0.0000
      59,    64.0000,     8.0000,     0.0000
      60,    68.0000,     8.0000,     0.0000
      61,    72.0000,     8.0000,     0.0000
      62,    76.0000,     8.0000,     0.0000
      63,    80.0000,     8.0000,     0.0000
      64,     0.0000,    12.0000,     0.0000
      65,     4.0000,    12.0000,     0.0000
      66,     8.0000,    12.0000,     0.0000
      67,    12.0000,    12.0000,     0.0000
      68,    16.0000,    12.0000,     0.0000
      69,    20.0000,    12.0000,     0.0000
      70,    24.0000,    12.0000,     0.0000
      71,    28.0000,    12.0000,     0.0000
      72,    32.0000,    12.0000,     0.0000
      73,    36.0000,    12.0000,     0.0000
      74,    40.0000,    12.0000,     0.0000
      75,    44.0000,    12.0000,     0.0000
      76,    48.0000,    12.0000,     0.0000
      77,    52.0000,    12.0000,     0.0000
      78,    56.0000,    12.0000,     0.0000
      79,    60.0000,    12.0000,     0.0000
      80,    64.0000,    12.0000,     0.0000
      81,    68.0000,    12.0000,     0.0000
      82,    72.0000,    12.0000,     0.0000
      83,    76.0000,    12.0000,     0.0000
      84,    80.0000,    12.0000,     0.0000
      85,     0.0000,    16.0000,     0.0000
      86,     4.0000,    16.0000,     0.0000
      87,     8.0000,    16.0000,     0.0000
      88,    12.0000,    16.0000,     0.0000
      89,    16.0000,    16.0000,     0.0000
      90,    20.0000,    16.0000,     0.0000
      91,    24.0000,    16.0000,     0.0000
      92,    28.0000,    16.0000,     0.0000
      93,    32.0000,    16.0000,     0.0000
      94,    36.0000,    16.0000,     0.0000
      95,    40.0000,    16.0000,     0.0000
      96,    44.0000,    16.0000,     0.0000
      97,    48.0000,    16.0000,     0.0000
      98,    52.0000,    16.0000,     0.0000
      99,    56.0000,    16.0000,     0.0000
     100,    60.0000,    16.0000,     0.0000
     101,    64.0000,    16.0000,     0.0000
     102,    68.0000,    16.0000,     0.0000
     103,    72.0000,    16.0000,     0.0000
     104,    76.0000,    16.0000,     0.0000
     105,    80.0000,    16.0000,     0.0000
     106,     0.0000,    20.0000,     0.0000
     107,     4.0000,    20.0000,     0.0000
     108,     8.0000,    20.0000,     0.0000
     109,    12.0000,    20.0000,     0.0000
     110,    16.0000,    20.0000,     0.0000
     111,    28.0000,    20.0000,     0.0000
     112,    32.0000,    20.0000,     0.0000
     113,    36.0000,    20.0000,     0.0000
     114,    40.0000,    20.0000,     0.0000
     115,    44.0000,    20.0000,     0.0000
     116,    48.0000,    20.0000,     0.0000
     117,    52.0000,    20.0000,     0.0000
     118,    56.0000,    20.0000,     0.0000
     119,    60.0000,    20.0000,     0.0000
     120,    64.0000,    20.0000,     0.0000
     121,    68.0000,    20.0000,     0.0000
     122,    72.0000,    20.0000,     0.0000
     123,    76.0000,    20.0000,     0.0000
     124,    80.0000,    20.0000,     0.0000
     125,     0.0000,    24.0000,     0.0000
     126,     4.0000,    24.0000,     0.0000
     127,     8.0000,    24.0000,     0.0000
     128,    12.0000,    24.0000,     0.0000
     129,    16.0000,    24.0000,     0.0000
     130,     0.0000,    28.0000,     0.0000
     131,     4.0000,    28.0000,     0.0000
     132,     8.0000,    28.0000,     0.0000
     133,    12.0000,    28.0000,     0.0000
     134,    16.0000,    28.0000,     0.0000
     135,    20.0000,    28.0000,     0.0000
     136,     0.0000,    32.0000,     0.0000
     137,     4.0000,    32.0000,     0.0000
     138,     8.0000,    32.0000,     0.0000
     139,    12.0000,    32.0000,     0.0000
     140,    16.0000,    32.0000,     0.0000
     141,    20.0000,    32.0000,     0.0000
     142,     0.0000,    36.0000,     0.0000
     143,     4.0000,    36.0000,     0.0000
     144,     8.0000,    36.0000,     0.0000
     145,    12.0000,    36.0000,     0.0000
     146,    16.0000,    36.0000,     0.0000
     147,    20.0000,    36.0000,     0.0000
     148,     0.0000,    40.0000,     0.0000
     149,     4.0000,    40.0000,     0.0000
     150,     8.0000,    40.0000,     0.0000
     151,    12.0000,    40.0000,     0.0000
     152,    16.0000,    40.0000,     0.0000
     153,    20.0000,    40.0000,     0.0000
     154,     0.0000,    44.0000,     0.0000
     155,     4.0000,    44.0000,     0.0000
     156,     8.0000,    44.0000,     0.0000
     157,    12.0000,    44.0000,     0.0000
     158,    16.0000,    44.0000,     0.0000
     159,    20.0000,    44.0000,     0.0000
     160,     0.0000,    48.0000,     0.0000
     161,     4.0000,    48.0000,     0.0000
     162,     8.0000,    48.0000,     0.0000
     163,    12.0000,    48.0000,     0.0000
     164,    16.0000,    48.0000,     0.0000
     165,    20.0000,    48.0000,     0.0000
     166,     0.0000,    52.0000,     0.0000
     167,     4.0000,    52.0000,     0.0000
     168,     8.0000,    52.0000,     0.0000
     169,    12.0000,    52.0000,     0.0000
     170,    16.0000,    52.0000,     0.0000
     171,    20.0000,    52.0000,     0.0000
     172,     0.0000,    56.0000,     0.0000
     173,     4.0000,    56.0000,     0.0000
     174,     8.0000,    56.0000,     0.0000
     175,    12.0000,    56.0000,     0.0000
     176,    16.0000,    56.0000,     0.0000
     177,    20.0000,    56.0000,     0.0000
     178,     0.0000,    60.0000,     0.0000
     179,     4.0000,    60.0000,     0.0000
     180,     8.0000,    60.0000,     0.0000
     181,    12.0000,    60.0000,     0.0000
     182,    16.0000,    60.0000,     0.0000
     183,    20.0000,    60.0000,     0.0000
     184,     0.0000,    64.0000,     0.0000
     185,     4.0000,    64.0000,     0.0000
     186,     8.0000,    64.0000,     0.0000
     187,    12.0000,    64.0000,     0.0000
     188,    16.0000,    64.0000,     0.0000
     189,    20.0000,    64.0000,     0.0000
     190,     0.0000,    68.0000,     0.0000
     191,     4.0000,    68.0000,     0.0000
     192,     8.0000,    68.0000,     0.0000
     193,    12.0000,    68.0000,     0.0000
     194,    16.0000,    68.0000,     0.0000
     195,    20.0000,    68.0000,     0.0000
     196,     0.0000,    72.0000,     0.0000
     197,     4.0000,    72.0000,     0.0000
     198,     8.0000,    72.0000,     0.0000
     199,    12.0000,    72.0000,     0.0000
     200,    16.0000,    72.0000,     0.0000
     201,    20.0000,    72.0000,     0.0000
     202,     0.0000,    76.0000,     0.0000
     203,     4.0000,    76.0000,     0.0000
     204,     8.0000,    76.0000,     0.0000
     205,    12.0000,    76.0000,     0.0000
     206,    16.0000,    76.0000,     0.0000
     207,    20.0000,    76.0000,     0.0000
     208,     0.0000,    80.0000,     0.0000
     209,     4.0000,    80.0000,     0.0000
     210,     8.0000,    80.0000,     0.0000
     211,    12.0000,    80.0000,     0.0000
     212,    16.0000,    80.0000,     0.0000
     213,    20.0000,    80.0000,     0.0000
     214,     0.0000,     0.0000,     2.0000
     215,     4.0000,     0.0000,     2.0000
     216,     8.0000,     0.0000,     2.0000
     217,    12.0000,     0.0000,     2.0000
     218,    16.0000,     0.0000,     2.0000
     219,    20.0000,     0.0000,     2.0000
     220,    24.0000,     0.0000,     2.0000
     221,    28.0000,     0.0000,     2.0000
     222,    32.0000,     0.0000,     2.0000
     223,    36.0000,     0.0000,     2.0000
     224,    40.0000,     0.0000,     2.0000
     225,    44.0000,     0.0000,     2.0000
     226,    48.0000,     0.0000,     2.0000
     227,    52.0000,     0.0000,     2.0000
     228,    56.0000,     0.0000,     2.0000
     229,    60.0000,     0.0000,     2.0000
     230,    64.0000,     0.0000,     2.0000
     231,    68.0000,     0.0000,     2.0000
     232,    72.0000,     0.0000,     2.0000
     233,    76.0000,     0.0000,     2.0000
     234,    80.0000,     0.0000,     2.0000
     235,     0.0000,     4.0000,     2.0000
     236,     4.0000,     4.0000,     2.0000
     237,     8.0000,     4.0000,     2.0000
     238,    12.0000,     4.0000,     2.0000
     239,    16.0000,     4.0000,     2.0000
     240,    20.0000,     4.0000,     2.0000
     241,    24.0000,     4.0000,     2.0000
     242,    28.0000,     4.0000,     2.0000
     243,    32.0000,     4.0000,     2.0000
     244,    36.0000,     4.0000,     2.0000
     245,    40.0000,     4.0000,     2.0000
     246,    44.0000,     4.0000,     2.0000
     247,    48.0000,     4.0000,     2.0000
     248,    52.0000,     4.0000,     2.0000
     249,    56.0000,     4.0000,     2.0000
     250,    60.0000,     4.0000,     2.0000
     251,    64.0000,     4.0000,     2.0000
     252,    68.0000,     4.0000,     2.0000
     253,    72.0000,     4.0000,     2.0000
     254,    76.0000,     4.0000,     2.0000
     255,    80.0000,     4.0000,     2.0000
     256,     0.0000,     8.0000,     2.0000
     257,     4.0000,     8.0000,     2.0000
     258,     8.0000,     8.0000,     2.0000
     259,    12.0000,     8.0000,     2.0000
     260,    16.0000,     8.0000,     2.0000
     261,    20.0000,     8.0000,     2.0000
     262,    24.0000,     8.0000,     2.0000
     263,    28.0000,     8.0000,     2.0000
     264,    32.0000,     8.0000,     2.0000
     265,    36.0000,     8.0000,     2.0000
     266,    40.0000,     8.0000,     2.0000
     267,    44.0000,     8.0000,     2.0000
     268,    48.0000,     8.0000,     2.0000
     269,    52.0000,     8.0000,     2.0000
     270,    56.0000,     8.0000,     2.0000
     271,    60.0000,     8.0000,     2.0000
     272,    64.0000,     8.0000,     2.0000
     273,    68.0000,     8.0000,     2.0000
     274,    72.0000,     8.0000,     2.0000
     275,    76.0000,     8.0000,     2.0000
     276,    80.0000,     8.0000,     2.0000
     277,     0.0000,    12.0000,     2.0000
     278,     4.0000,    12.0000,     2.0000
     279,     8.0000,    12.0000,     2.0000
     280,    12.0000,    12.0000,     2.0000
     281,    16.0000,    12.0000,     2.0000
     282,    20.0000,    12.0000,     2.0000
     283,    24.0000,    12.0000,     2.0000
     284,    28.0000,    12.0000,     2.0000
     285,    32.0000,    12.0000,     2.0000
     286,    36.0000,    12.0000,     2.0000
     287,    40.0000,    12.0000,     2.0000
     288,    44.0000,    12.0000,     2.0000
     289,    48.0000,    12.0000,     2.0000
     290,    52.0000,    12.0000,     2.0000
     291,    56.0000,    12.0000,     2.0000
     292,    60.0000,    12.0000,     2.0000
     293,    64.0000,    12.0000,     2.0000
     294,    68.0000,    12.0000,     2.0000
     295,    72.0000,    12.0000,     2.0000
     296,    76.0000,    12.0000,     2.0000
     297,    80.0000,    12.0000,     2.0000
     298,     0.0000,    16.0000,     2.0000
     299,     4.0000,    16.0000,     2.0000
     300,     8.0000,    16.0000,     2.0000
     301,    12.0000,    16.0000,     2.0000
     302,    16.0000,    16.0000,     2.0000
     303,    20.0000,    16.0000,     2.0000
     304,    24.0000,    16.0000,     2.0000
     305,    28.0000,    16.0000,     2.0000
     306,    32.0000,    16.0000,     2.0000
     307,    36.0000,    16.0000,     2.0000
     308,    40.0000,    16.0000,     2.0000
     309,    44.0000,    16.0000,     2.0000
     310,    48.0000,    16.0000,     2.0000
     311,    52.0000,    16.0000,     2.0000
     312,    56.0000,    16.0000,     2.0000
     313,    60.0000,    16.0000,     2.0000
     314,    64.0000,    16.0000,     2.0000
     315,    68.0000,    16.0000,     2.0000
     316,    72.0000,    16.0000,     2.0000
     317,    76.0000,    16.0000,     2.0000
     318,    80.0000,    16.0000,     2.0000
     319,     0.0000,    20.0000,     2.0000
     320,     4.0000,    20.0000,     2.0000
     321,     8.0000,    20.0000,     2.0000
     322,    12.0000,    20.0000,     2.0000
     323,    16.0000,    20.0000,     2.0000
     324,    28.0000,    20.0000,     2.0000
     325,    32.0000,    20.0000,     2.0000
     326,    36.0000,    20.0000,     2.0000
     327,    40.0000,    20.0000,     2.0000
     328,    44.0000,    20.0000,     2.0000
     329,    48.0000,    20.0000,     2.0000
     330,    52.0000,    20.0000,     2.0000
     331,    56.0000,    20.0000,     2.0000
     332,    60.0000,    20.0000,     2.0000
     333,    64.0000,    20.0000,     2.0000
     334,    68.0000,    20.0000,     2.0000
     335,    72.0000,    20.0000,     2.0000
     336,    76.0000,    20.0000,     2.0000
     337,    80.0000,    20.0000,     2.0000
     338,     0.0000,    24.0000,     2.0000
     339,     4.0000,    24.0000,     2.0000
     340,     8.0000,    24.0000,     2.0000
     341,    12.0000,    24.0000,     2.0000
     342,    16.0000,    24.0000,     2.0000
     343,     0.0000,    28.0000,     2.0000
     344,     4.0000,    28.0000,     2.0000
     345,     8.0000,    28.0000,     2.0000
     346,    12.0000,    28.0000,     2.0000
     347,    16.0000,    28.0000,     2.0000
     348,    20.0000,    28.0000,     2.0000
     349,     0.0000,    32.0000,     2.0000
     350,     4.0000,    32.0000,     2.0000
     351,     8.0000,    32.0000,     2.0000
     352,    12.0000,    32.0000,     2.0000
     353,    16.0000,    32.0000,     2.0000
     354,    20.0000,    32.0000,     2.0000
     355,     0.0000,    36.0000,     2.0000
     356,     4.0000,    36.0000,     2.0000
     357,     8.0000,    36.0000,     2.0000
     358,    12.0000,    36.0000,     2.0000
     359,    16.0000,    36.0000,     2.0000
     360,    20.0000,    36.0000,     2.0000
     361,     0.0000,    40.0000,     2.0000
     362,     4.0000,    40.0000,     2.0000
     363,     8.0000,    40.0000,     2.0000
     364,    12.0000,    40.0000,     2.0000
     365,    16.0000,    40.0000,     2.0000
     366,    20.0000,    40.0000,     2.0000
     367,     0.0000,    44.0000,     2.0000
     368,     4.0000,    44.0000,     2.0000
     369,     8.0000,    44.0000,     2.0000
     370,    12.0000,    44.0000,     2.0000
     371,    16.0000,    44.0000,     2.0000
     372,    20.0000,    44.0000,     2.0000
     373,     0.0000,    48.0000,     2.0000
     374,     4.0000,    48.0000,     2.0000
     375,     8.0000,    48.0000,     2.0000
     376,    12.0000,    48.0000,     2.0000
     377,    16.0000,    48.0000,     2.0000
     378,    20.0000,    48.0000,     2.0000
     379,     0.0000,    52.0000,     2.0000
     380,     4.0000,    52.0000,     2.0000
     381,     8.0000,    52.0000,     2.0000
     382,    12.0000,    52.0000,     2.0000
     383,    16.0000,    52.0000,     2.0000
     384,    20.0000,    52.0000,     2.0000
     385,     0.0000,    56.0000,     2.0000
     386,     4.0000,    56.0000,     2.0000
     387,     8.0000,    56.0000,     2.0000
     388,    12.0000,    56.0000,     2.0000
     389,    16.0000,    56.0000,     2.0000
     390,    20.0000,    56.0000,     2.0000
     391,     0.0000,    60.0000,     2.0000
     392,     4.0000,    60.0000,     2.0000
     393,     8.0000,    60.0000,     2.0000
     394,    12.0000,    60.0000,     2.0000
     395,    16.0000,    60.0000,     2.0000
     396,    20.0000,    60.0000,     2.0000
     397,     0.0000,    64.0000,     2.0000
     398,     4.0000,    64.0000,     2.0000
     399,     8.0000,    64.0000,     2.0000
     400,    12.0000,    64.0000,     2.0000
     401,    16.0000,    64.0000,     2.0000
     402,    20.0000,    64.0000,     2.0000
     403,     0.0000,    68.0000,     2.0000
     404,     4.0000,    68.0000,     2.0000
     405,     8.0000,    68.0000,     2.0000
     406,    12.0000,    68.0000,     2.0000
     407,    16.0000,    68.0000,     2.0000
     408,    20.0000,    68.0000,     2.0000
     409,     0.0000,    72.0000,     2.0000
     410,     4.0000,    72.0000,     2.0000
     411,     8.0000,    72.0000,     2.0000
     412,    12.0000,    72.0000,     2.0000
     413,    16.0000,    72.0000,     2.0000
     414,    20.0000,    72.0000,     2.0000
     415,     0.0000,    76.0000,     2.0000
     416,     4.0000,    76.0000,     2.0000
     417,     8.0000,    76.0000,     2.0000
     418,    12.0000,    76.0000,     2.0000
     419,    16.0000,    76.0000,     2.0000
     420,    20.0000,    76.0000,     2.0000
     421,     0.0000,    80.0000,     2.0000
     422,     4.0000,    80.0000,     2.0000
     423,     8.0000,    80.0000,     2.0000
     424,    12.0000,    80.0000,     2.0000
     425,    16.0000,    80.0000,     2.0000
     426,    20.0000,    80.0000,     2.0000
     427,     0.0000,     0.0000,     4.0000
     428,     4.0000,     0.0000,     4.0000
     429,     8.0000,     0.0000,     4.0000
     430,    12.0000,     0.0000,     4.0000
     431,    16.0000,     0.0000,     4.0000
     432,    20.0000,     0.0000,     4.0000
     433,    24.0000,     0.0000,     4.0000
     434,    28.0000,     0.0000,     4.0000
     435,    32.0000,     0.0000,     4.0000
     436,    36.0000,     0.0000,     4.0000
     437,    40.0000,     0.0000,     4.0000
     438,    44.0000,     0.0000,     4.0000
     439,    48.0000,     0.0000,     4.0000
     440,    52.0000,     0.0000,     4.0000
     441,    56.0000,     0.0000,     4.0000
     442,    60.0000,     0.0000,     4.0000
     443,    64.0000,     0.0000,     4.0000
     444,    68.0000,     0.0000,     4.0000
     445,    72.0000,     0.0000,     4.0000
     446,    76.0000,     0.0000,     4.0000
     447,    80.0000,     0.0000,     4.0000
     448,     0.0000,     4.0000,     4.0000
     449,     4.0000,     4.0000,     4.0000
     450,     8.0000,     4.0000,     4.0000
     451,    12.0000,     4.0000,     4.0000
     452,    16.0000,     4.0000,     4.0000
     453,    20.0000,     4.0000,     4.0000
     454,    24.0000,     4.0000,     4.0000
     455,    28.0000,     4.0000,     4.0000
     456,    32.0000,     4.0000,     4.0000
     457,    36.0000,     4.0000,     4.0000
     458,    40.0000,     4.0000,     4.0000
     459,    44.0000,     4.0000,     4.0000
     460,    48.0000,     4.0000,     4.0000
     461,    52.0000,     4.0000,     4.0000
     462,    56.0000,     4.0000,     4.0000
     463,    60.0000,     4.0000,     4.0000
     464,    64.0000,     4.0000,     4.0000
     465,    68.0000,     4.0000,     4.0000
     466,    72.0000,     4.0000,     4.0000
     467,    76.0000,     4.0000,     4.0000
     468,    80.0000,     4.0000,     4.0000
     469,     0.0000,     8.0000,     4.0000
     470,     4.0000,     8.0000,     4.0000
     471,     8.0000,     8.0000,     4.0000
     472,    12.0000,     8.0000,     4.0000
     473,    16.0000,     8.0000,     4.0000
     474,    20.0000,     8.0000,     4.0000
     475,    24.0000,     8.0000,     4.0000
     476,    28.0000,     8.0000,     4.0000
     477,    32.0000,     8.0000,     4.0000
     478,    36.0000,     8.0000,     4.0000
     479,    40.0000,     8.0000,     4.0000
     480,    44.0000,     8.0000,     4.0000
     481,    48.0000,     8.0000,     4.0000
     482,    52.0000,     8.0000,     4.0000
     483,    56.0000,     8.0000,     4.0000
     484,    60.0000,     8.0000,     4.0000
     485,    64.0000,     8.0000,     4.0000
     486,    68.0000,     8.0000,     4.0000
     487,    72.0000,     8.0000,     4.0000
     488,    76.0000,     8.0000,     4.0000
     489,    80.0000,     8.0000,     4.0000
     490,     0.0000,    12.0000,     4.0000
     491,     4.0000,    12.0000,     4.0000
     492,     8.0000,    12.0000,     4.0000
     493,    12.0000,    12.0000,     4.0000
     494,    16.0000,    12.0000,     4.0000
     495,    20.0000,    12.0000,     4.0000
     496,    24.0000,    12.0000,     4.0000
     497,    28.0000,    12.0000,     4.0000
     498,    32.0000,    12.0000,     4.0000
     499,    36.0000,    12.0000,     4.0000
     500,    40.0000,    12.0000,     4.0000
     501,    44.0000,    12.0000,     4.0000
     502,    48.0000,    12.0000,     4.0000
     503,    52.0000,    12.0000,     4.0000
     504,    56.0000,    12.0000,     4.0000
     505,    60.0000,    12.0000,     4.0000
     506,    64.0000,    12.0000,     4.0000
     507,    68.0000,    12.0000,     4.0000
     508,    72.0000,    12.0000,     4.0000
     509,    76.0000,    12.0000,     4.0000
     510,    80.0000,    12.0000,     4.0000
     511,     0.0000,    16.0000,     4.0000
     512,     4.0000,    16.0000,     4.0000
     513,     8.0000,    16.0000,     4.0000
     514,    12.0000,    16.0000,     4.0000
     515,    16.0000,    16.0000,     4.0000
     516,    20.0000,    16.0000,     4.0000
     517,    24.0000,    16.0000,     4.0000
     518,    28.0000,    16.0000,     4.0000
     519,    32.0000,    16.0000,     4.0000
     520,    36.0000,    16.0000,     4.0000
     521,    40.0000,    16.0000,     4.0000
     522,    44.0000,    16.0000,     4.0000
     523,    48.0000,    16.0000,     4.0000
     524,    52.0000,    16.0000,     4.0000
     525,    56.0000,    16.0000,     4.0000
     526,    60.0000,    16.0000,     4.0000
     527,    64.0000,    16.0000,     4.0000
     528,    68.0000,    16.0000,     4.0000
     529,    72.0000,    16.0000,     4.0000
     530,    76.0000,    16.0000,     4.0000
     531,    80.0000,    16.0000,     4.0000
     532,     0.0000,    20.0000,     4.0000
     533,     4.0000,    20.0000,     4.0000
     534,     8.0000,    20.0000,     4.0000
     535,    12.0000,    20.0000,     4.0000
     536,    16.0000,    20.0000,     4.0000
     537,    28.0000,    20.0000,     4.0000
     538,    32.0000,    20.0000,     4.0000
     539,    36.0000,    20.0000,     4.0000
     540,    40.0000,    20.0000,     4.0000
     541,    44.0000,    20.0000,     4.0000
     542,    48.0000,    20.0000,     4.0000
     543,    52.0000,    20.0000,     4.0000
     544,    56.0000,    20.0000,     4.0000
     545,    60.0000,    20.0000,     4.0000
     546,    64.0000,    20.0000,     4.0000
     547,    68.0000,    20.0000,     4.0000
     548,    72.0000,    20.0000,     4.0000
     549,    76.0000,    20.0000,     4.0000
     550,    80.0000,    20.0000,     4.0000
     551,     0.0000,    24.0000,     4.0000
     552,     4.0000,    24.0000,     4.0000
     553,     8.0000,    24.0000,     4.0000
     554,    12.0000,    24.0000,     4.0000
     555,    16.0000,    24.0000,     4.0000
     556,     0.0000,    28.0000,     4.0000
     557,     4.0000,    28.0000,     4.0000
     558,     8.0000,    28.0000,     4.0000
     559,    12.0000,    28.0000,     4.0000
     560,    16.0000,    28.0000,     4.0000
     561,    20.0000,    28.0000,     4.0000
     562,     0.0000,    32.0000,     4.0000
     563,     4.0000,    32.0000,     4.0000
     564,     8.0000,    32.0000,     4.0000
     565,    12.0000,    32.0000,     4.0000
     566,    16.0000,    32.0000,     4.0000
     567,    20.0000,    32.0000,     4.0000
     568,     0.0000,    36.0000,     4.0000
     569,     4.0000,    36.0000,     4.0000
     570,     8.0000,    36.0000,     4.0000
     571,    12.0000,    36.0000,     4.0000
     572,    16.0000,    36.0000,     4.0000
     573,    20.0000,    36.0000,     4.0000
     574,     0.0000,    40.0000,     4.0000
     575,     4.0000,    40.0000,     4.0000
     576,     8.0000,    40.0000,     4.0000
     577,    12.0000,    40.0000,     4.0000
     578,    16.0000,    40.0000,     4.0000
     579,    20.0000,    40.0000,     4.0000
     580,     0.0000,    44.0000,     4.0000
     581,     4.0000,    44.0000,     4.0000
     582,     8.0000,    44.0000,     4.0000
     583,    12.0000,    44.0000,     4.0000
     584,    16.0000,    44.0000,     4.0000
     585,    20.0000,    44.0000,     4.0000
     586,     0.0000,    48.0000,     4.0000
     587,     4.0000,    48.0000,     4.0000
     588,     8.0000,    48.0000,     4.0000
     589,    12.0000,    48.0000,     4.0000
     590,    16.0000,    48.0000,     4.0000
     591,    20.0000,    48.0000,     4.0000
     592,     0.0000,    52.0000,     4.0000
     593,     4.0000,    52.0000,     4.0000
     594,     8.0000,    52.0000,     4.0000
     595,    12.0000,    52.0000,     4.0000
     596,    16.0000,    52.0000,     4.0000
     597,    20.0000,    52.0000,     4.0000
     598,     0.0000,    56.0000,     4.0000
     599,     4.0000,    56.0000,     4.0000
     600,     8.0000,    56.0000,     4.0000
     601,    12.0000,    56.0000,     4.0000
     602,    16.0000,    56.0000,     4.0000
     603,    20.0000,    56.0000,     4.0000
     604,     0.0000,    60.0000,     4.0000
     605,     4.0000,    60.0000,     4.0000
     606,     8.0000,    60.0000,     4.0000
     607,    12.0000,    60.0000,     4.0000
     608,    16.0000,    60.0000,     4.0000
     609,    20.0000,    60.0000,     4.0000
     610,     0.0000,    64.0000,     4.0000
     611,     4.0000,    64.0000,     4.0000
     612,     8.0000,    64.0000,     4.0000
     613,    12.0000,    64.0000,     4.0000
     614,    16.0000,    64.0000,     4.0000
     615,    20.0000,    64.0000,     4.0000
     616,     0.0000,    68.0000,     4.0000
     617,     4.0000,    68.0000,     4.0000
     618,     8.0000,    68.0000,     4.0000
     619,    12.0000,    68.0000,     4.0000
     620,    16.0000,    68.0000,     4.0000
     621,    20.0000,    68.0000,     4.0000
     622,     0.0000,    72.0000,     4.0000
     623,     4.0000,    72.0000,     4.0000
     624,     8.0000,    72.0000,     4.0000
     625,    12.0000,    72.0000,     4.0000
     626,    16.0000,    72.0000,     4.0000
     627,    20.0000,    72.0000,     4.0000
     628,     0.0000,    76.0000,     4.0000
     629,     4.0000,    76.0000,     4.0000
     630,     8.0000,    76.0000,     4.0000
     631,    12.0000,    76.0000,     4.0000
     632,    16.0000,    76.0000,     4.0000
     633,    20.0000,    76.0000,     4.0000
     634,     0.0000,    80.0000,     4.0000
     635,     4.0000,    80.0000,     4.0000
     636,     8.0000,    80.0000,     4.0000
     637,    12.0000,    80.0000,     4.0000
     638,    16.0000,    80.0000,     4.0000
     639,    20.0000,    80.0000,     4.0000
     640,     0.0000,     0.0000,     6.0000
     641,     4.0000,     0.0000,     6.0000
     642,     8.0000,     0.0000,     6.0000
     643,    12.0000,     0.0000,     6.0000
     644,    16.0000,     0.0000,     6.0000
     645,    20.0000,     0.0000,     6.0000
     646,    24.0000,     0.0000,     6.0000
     647,    28.0000,     0.0000,     6.0000
     648,    32.0000,     0.0000,     6.0000
     649,    36.0000,     0.0000,     6.0000
     650,    40.0000,     0.0000,     6.0000
     651,    44.0000,     0.0000,     6.0000
     652,    48.0000,     0.0000,     6.0000
     653,    52.0000,     0.0000,     6.0000
     654,    56.0000,     0.0000,     6.0000
     655,    60.0000,     0.0000,     6.0000
     656,    64.0000,     0.0000,     6.0000
     657,    68.0000,     0.0000,     6.0000
     658,    72.0000,     0.0000,     6.0000
     659,    76.0000,     0.0000,     6.0000
     660,    80.0000,     0.0000,     6.0000
     661,     0.0000,     4.0000,     6.0000
     662,     4.0000,     4.0000,     6.0000
     663,     8.0000,     4.0000,     6.0000
     664,    12.0000,     4.0000,     6.0000
     665,    16.0000,     4.0000,     6.0000
     666,    20.0000,     4.0000,     6.0000
     667,    24.0000,     4.0000,     6.0000
     668,    28.0000,     4.0000,     6.0000
     669,    32.0000,     4.0000,     6.0000
     670,    36.0000,     4.0000,     6.0000
     671,    40.0000,     4.0000,     6.0000
     672,    44.0000,     4.0000,     6.0000
     673,    48.0000,     4.0000,     6.0000
     674,    52.0000,     4.0000,     6.0000
     675,    56.0000,     4.0000,     6.0000
     676,    60.0000,     4.0000,     6.0000
     677,    64.0000,     4.0000,     6.0000
     678,    68.0000,     4.0000,     6.0000
     679,    72.0000,     4.0000,     6.0000
     680,    76.0000,     4.0000,     6.0000
     681,    80.0000,     4.0000,     6.0000
     682,     0.0000,     8.0000,     6.0000
     683,     4.0000,     8.0000,     6.0000
     684,     8.0000,     8.0000,     6.0000
     685,    12.0000,     8.0000,     6.0000
     686,    16.0000,     8.0000,     6.0000
     687,    20.0000,     8.0000,     6.0000
     688,    24.0000,     8.0000,     6.0000
     689,    28.0000,     8.0000,     6.0000
     690,    32.0000,     8.0000,     6.0000
     691,    36.0000,     8.0000,     6.0000
     692,    40.0000,     8.0000,     6.0000
     693,    44.0000,     8.0000,     6.0000
     694,    48.0000,     8.0000,     6.0000
     695,    52.0000,     8.0000,     6.0000
     696,    56.0000,     8.0000,     6.0000
     697,    60.0000,     8.0000,     6.0000
     698,    64.0000,     8.0000,     6.0000
     699,    68.0000,     8.0000,     6.0000
     700,    72.0000,     8.0000,     6.0000
     701,    76.0000,     8.0000,     6.0000
     702,    80.0000,     8.0000,     6.0000
     703,     0.0000,    12.0000,     6.0000
     704,     4.0000,    12.0000,     6.0000
     705,     8.0000,    12.0000,     6.0000
     706,    12.0000,    12.0000,     6.0000
     707,    16.0000,    12.0000,     6.0000
     708,    20.0000,    12.0000,     6.0000
     709,    24.0000,    12.0000,     6.0000
     710,    28.0000,    12.0000,     6.0000
     711,    32.0000,    12.0000,     6.0000
     712,    36.0000,    12.0000,     6.0000
     713,    40.0000,    12.0000,     6.0000
     714,    44.0000,    12.0000,     6.0000
     715,    48.0000,    12.0000,     6.0000
     716,    52.0000,    12.0000,     6.0000
     717,    56.0000,    12.0000,     6.0000
     718,    60.0000,    12.0000,     6.0000
     719,    64.0000,    12.0000,     6.0000
     720,    68.0000,    12.0000,     6.0000
     721,    72.0000,    12.0000,     6.0000
     722,    76.0000,    12.0000,     6.0000
     723,    80.0000,    12.0000,     6.0000
     724,     0.0000,    16.0000,     6.0000
     725,     4.0000,    16.0000,     6.0000
     726,     8.0000,    16.0000,     6.0000
     727,    12.0000,    16.0000,     6.0000
     728,    16.0000,    16.0000,     6.0000
     729,    20.0000,    16.0000,     6.0000
     730,    24.0000,    16.0000,     6.0000
     731,    28.0000,    16.0000,     6.0000
     732,    32.0000,    16.0000,     6.0000
     733,    36.0000,    16.0000,     6.0000
     734,    40.0000,    16.0000,     6.0000
     735,    44.0000,    16.0000,     6.0000
     736,    48.0000,    16.0000,     6.0000
     737,    52.0000,    16.0000,     6.0000
     738,    56.0000,    16.0000,     6.0000
     739,    60.0000,    16.0000,     6.0000
     740,    64.0000,    16.0000,     6.0000
     741,    68.0000,    16.0000,     6.0000
     742,    72.0000,    16.0000,     6.0000
     743,    76.0000,    16.0000,     6.0000
     744,    80.0000,    16.0000,     6.0000
     745,     0.0000,    20.0000,     6.0000
     746,     4.0000,    20.0000,     6.0000
     747,     8.0000,    20.0000,     6.0000
     748,    12.0000,    20.0000,     6.0000
     749,    16.0000,    20.0000,     6.0000
     750,    28.0000,    20.0000,     6.0000
     751,    32.0000,    20.0000,     6.0000
     752,    36.0000,    20.0000,     6.0000
     753,    40.0000,    20.0000,     6.0000
     754,    44.0000,    20.0000,     6.0000
     755,    48.0000,    20.0000,     6.0000
     756,    52.0000,    20.0000,     6.0000
     757,    56.0000,    20.0000,     6.0000
     758,    60.0000,    20.0000,     6.0000
     759,    64.0000,    20.0000,     6.0000
     760,    68.0000,    20.0000,     6.0000
     761,    72.0000,    20.0000,     6.0000
     762,    76.0000,    20.0000,     6.0000
     763,    80.0000,    20.0000,     6.0000
     764,     0.0000,    24.0000,     6.0000
     765,     4.0000,    24.0000,     6.0000
     766,     8.0000,    24.0000,     6.0000
     767,    12.0000,    24.0000,     6.0000
     768,    16.0000,    24.0000,     6.0000
     769,     0.0000,    28.0000,     6.0000
     770,     4.0000,    28.0000,     6.0000
     771,     8.0000,    28.0000,     6.0000
     772,    12.0000,    28.0000,     6.0000
     773,    16.0000,    28.0000,     6.0000
     774,    20.0000,    28.0000,     6.0000
     775,     0.0000,    32.0000,     6.0000
     776,     4.0000,    32.0000,     6.0000
     777,     8.0000,    32.0000,     6.0000
     778,    12.0000,    32.0000,     6.0000
     779,    16.0000,    32.0000,     6.0000
     780,    20.0000,    32.0000,     6.0000
     781,     0.0000,    36.0000,     6.0000
     782,     4.0000,    36.0000,     6.0000
     783,     8.0000,    36.0000,     6.0000
     784,    12.0000,    36.0000,     6.0000
     785,    16.0000,    36.0000,     6.0000
     786,    20.0000,    36.0000,     6.0000
     787,     0.0000,    40.0000,     6.0000
     788,     4.0000,    40.0000,     6.0000
     789,     8.0000,    40.0000,     6.0000
     790,    12.0000,    40.0000,     6.0000
     791,    16.0000,    40.0000,     6.0000
     792,    20.0000,    40.0000,     6.0000
     793,     0.0000,    44.0000,     6.0000
     794,     4.0000,    44.0000,     6.0000
     795,     8.0000,    44.0000,     6.0000
     796,    12.0000,    44.0000,     6.0000
     797,    16.0000,    44.0000,     6.0000
     798,    20.0000,    44.0000,     6.0000
     799,     0.0000,    48.0000,     6.0000
     800,     4.0000,    48.0000,     6.0000
     801,     8.0000,    48.0000,     6.0000
     802,    12.0000,    48.0000,     6.0000
     803,    16.0000,    48.0000,     6.0000
     804,    20.0000,    48.0000,     6.0000
     805,     0.0000,    52.0000,     6.0000
     806,     4.0000,    52.0000,     6.0000
     807,     8.0000,    52.0000,     6.0000
     808,    12.0000,    52.0000,     6.0000
     809,    16.0000,    52.0000,     6.0000
     810,    20.0000,    52.0000,     6.0000
     811,     0.0000,    56.0000,     6.0000
     812,     4.0000,    56.0000,     6.0000
     813,     8.0000,    56.0000,     6.0000
     814,    12.0000,    56.0000,     6.0000
     815,    16.0000,    56.0000,     6.0000
     816,    20.0000,    56.0000,     6.0000
     817,     0.0000,    60.0000,     6.0000
     818,     4.0000,    60.0000,     6.0000
     819,     8.0000,    60.0000,     6.0000
     820,    12.0000,    60.0000,     6.0000
     821,    16.0000,    60.0000,     6.0000
     822,    20.0000,    60.0000,     6.0000
     823,     0.0000,    64.0000,     6.0000
     824,     4.0000,    64.0000,     6.0000
     825,     8.0000,    64.0000,     6.0000
     826,    12.0000,    64.0000,     6.0000
     827,    16.0000,    64.0000,     6.0000
     828,    20.0000,    64.0000,     6.0000
     829,     0.0000,    68.0000,     6.0000
     830,     4.0000,    68.0000,     6.0000
     831,     8.0000,    68.0000,     6.0000
     832,    12.0000,    68.0000,     6.0000
     833,    16.0000,    68.0000,     6.0000
     834,    20.0000,    68.0000,     6.0000
     835,     0.0000,    72.0000,     6.0000
     836,     4.0000,    72.0000,     6.0000
     837,     8.0000,    72.0000,     6.0000
     838,    12.0000,    72.0000,     6.0000
     839,    16.0000,    72.0000,     6.0000
     840,    20.0000,    72.0000,     6.0000
     841,     0.0000,    76.0000,     6.0000
     842,     4.0000,    76.0000,     6.0000
     843,     8.0000,    76.0000,     6.0000
     844,    12.0000,    76.0000,     6.0000
     845,    16.0000,    76.0000,     6.0000
     846,    20.0000,    76.0000,     6.0000
     847,     0.0000,    80.0000,     6.0000
     848,     4.0000,    80.0000,     6.0000
     849,     8.0000,    80.0000,     6.0000
     850,    12.0000,    80.0000,     6.0000
     851,    16.0000,    80.0000,     6.0000
     852,    20.0000,    80.0000,     6.0000
     853,     0.0000,     0.0000,     8.0000
     854,     4.0000,     0.0000,     8.0000
     855,     8.0000,     0.0000,     8.0000
     856,    12.0000,     0.0000,     8.0000
     857,    16.0000,     0.0000,     8.0000
     858,    20.0000,     0.0000,     8.0000
     859,    24.0000,     0.0000,     8.0000
     860,    28.0000,     0.0000,     8.0000
     861,    32.0000,     0.0000,     8.0000
     862,    36.0000,     0.0000,     8.0000
     863,    40.0000,     0.0000,     8.0000
     864,    44.0000,     0.0000,     8.0000
     865,    48.0000,     0.0000,     8.0000
     866,    52.0000,     0.0000,     8.0000
     867,    56.0000,     0.0000,     8.0000
     868,    60.0000,     0.0000,     8.0000
     869,    64.0000,     0.0000,     8.0000
     870,    68.0000,     0.0000,     8.0000
     871,    72.0000,     0.0000,     8.0000
     872,    76.0000,     0.0000,     8.0000
     873,    80.0000,     0.0000,     8.0000
     874,     0.0000,     4.0000,     8.0000
     875,     4.0000,     4.0000,     8.0000
     876,     8.0000,     4.0000,     8.0000
     877,    12.0000,     4.0000,     8.0000
     878,    16.0000,     4.0000,     8.0000
     879,    20.0000,     4.0000,     8.0000
     880,    24.0000,     4.0000,     8.0000
     881,    28.0000,     4.0000,     8.0000
     882,    32.0000,     4.0000,     8.0000
     883,    36.0000,     4.0000,     8.0000
     884,    40.0000,     4.0000,     8.0000
     885,    44.0000,     4.0000,     8.0000
     886,    48.0000,     4.0000,     8.0000
     887,    52.0000,     4.0000,     8.0000
     888,    56.0000,     4.0000,     8.0000
     889,    60.0000,     4.0000,     8.0000
     890,    64.0000,     4.0000,     8.0000
     891,    68.0000,     4.0000,     8.0000
     892,    72.0000,     4.0000,     8.0000
     893,    76.0000,     4.0000,     8.0000
     894,    80.0000,     4.0000,     8.0000
     895,     0.0000,     8.0000,     8.0000
     896,     4.0000,     8.0000,     8.0000
     897,     8.0000,     8.0000,     8.0000
     898,    12.0000,     8.0000,     8.0000
     899,    16.0000,     8.0000,     8.0000
     900,    20.0000,     8.0000,     8.0000
     901,    24.0000,     8.0000,     8.0000
     902,    28.0000,     8.0000,     8.0000
     903,    32.0000,     8.0000,     8.0000
     904,    36.0000,     8.0000,     8.0000
     905,    40.0000,     8.0000,     8.0000
     906,    44.0000,     8.0000,     8.0000
     907,    48.0000,     8.0000,     8.0000
     908,    52.0000,     8.0000,     8.0000
     909,    56.0000,     8.0000,     8.0000
     910,    60.0000,     8.0000,     8.0000
     911,    64.0000,     8.0000,     8.0000
     912,    68.0000,     8.0000,     8.0000
     913,    72.0000,     8.0000,     8.0000
     914,    76.0000,     8.0000,     8.0000
     915,    80.0000,     8.0000,     8.0000
     916,     0.0000,    12.0000,     8.0000
     917,     4.0000,    12.0000,     8.0000
     918,     8.0000,    12.0000,     8.0000
     919,    12.0000,    12.0000,     8.0000
     920,    16.0000,    12.0000,     8.0000
     921,    20.0000,    12.0000,     8.0000
     922,    24.0000,    12.0000,     8.0000
     923,    28.0000,    12.0000,     8.0000
     924,    32.0000,    12.0000,     8.0000
     925,    36.0000,    12.0000,     8.0000
     926,    40.0000,    12.0000,     8.0000
     927,    44.0000,    12.0000,     8.0000
     928,    48.0000,    12.0000,     8.0000
     929,    52.0000,    12.0000,     8.0000
     930,    56.0000,    12.0000,     8.0000
     931,    60.0000,    12.0000,     8.0000
     932,    64.0000,    12.0000,     8.0000
     933,    68.0000,    12.0000,     8.0000
     934,    72.0000,    12.0000,     8.0000
     935,    76.0000,    12.0000,     8.0000
     936,    80.0000,    12.0000,     8.0000
     937,     0.0000,    16.0000,     8.0000
     938,     4.0000,    16.0000,     8.0000
     939,     8.0000,    16.0000,     8.0000
     940,    12.0000,    16.0000,     8.0000
     941,    16.0000,    16.0000,     8.0000
     942,    20.0000,    16.0000,     8.0000
     943,    24.0000,    16.0000,     8.0000
     944,    28.0000,    16.0000,     8.0000
     945,    32.0000,    16.0000,     8.0000
     946,    36.0000,    16.0000,     8.0000
     947,    40.0000,    16.0000,     8.0000
     948,    44.0000,    16.0000,     8.0000
     949,    48.0000,    16.0000,     8.0000
     950,    52.0000,    16.0000,     8.0000
     951,    56.0000,    16.0000,     8.0000
     952,    60.0000,    16.0000,     8.0000
     953,    64.0000,    16.0000,     8.0000
     954,    68.0000,    16.0000,     8.0000
     955,    72.0000,    16.0000,     8.0000
     956,    76.0000,    16.0000,     8.0000
     957,    80.0000,    16.0000,     8.0000
     958,     0.0000,    20.0000,     8.0000
     959,     4.0000,    20.0000,     8.0000
     960,     8.0000,    20.0000,     8.0000
     961,    12.0000,    20.0000,     8.0000
     962,    16.0000,    20.0000,     8.0000
     963,    28.0000,    20.0000,     8.0000
     964,    32.0000,    20.0000,     8.0000
     965,    36.0000,    20.0000,     8.0000
     966,    40.0000,    20.0000,     8.0000
     967,    44.0000,    20.0000,     8.0000
     968,    48.0000,    20.0000,     8.0000
     969,    52.0000,    20.0000,     8.0000
     970,    56.0000,    20.0000,     8.0000
     971,    60.0000,    20.0000,     8.0000
     972,    64.0000,    20.0000,     8.0000
     973,    68.0000,    20.0000,     8.0000
     974,    72.0000,    20.0000,     8.0000
     975,    76.0000,    20.0000,     8.0000
     976,    80.0000,    20.0000,     8.0000
     977,     0.0000,    24.0000,     8.0000
     978,     4.0000,    24.0000,     8.0000
     979,     8.0000,    24.0000,     8.0000
     980,    12.0000,    24.0000,     8.0000
     981,    16.0000,    24.0000,     8.0000
     982,     0.0000,    28.0000,     8.0000
     983,     4.0000,    28.0000,     8.0000
     984,     8.0000,    28.0000,     8.0000
     985,    12.0000,    28.0000,     8.0000
     986,    16.0000,    28.0000,     8.0000
     987,    20.0000,    28.0000,     8.0000
     988,     0.0000,    32.0000,     8.0000
     989,     4.0000,    32.0000,     8.0000
     990,     8.0000,    32.0000,     8.0000
     991,    12.0000,    32.0000,     8.0000
     992,    16.0000,    32.0000,     8.0000
     993,    20.0000,    32.0000,     8.0000
     994,     0.0000,    36.0000,     8.0000
     995,     4.0000,    36.0000,     8.0000
     996,     8.0000,    36.0000,     8.0000
     997,    12.0000,    36.0000,     8.0000
     998,    16.0000,    36.0000,     8.0000
     999,    20.0000,    36.0000,     8.0000
    1000,     0.0000,    40.0000,     8.0000
    1001,     4.0000,    40.0000,     8.0000
    1002,     8.0000,    40.0000,     8.0000
    1003,    12.0000,    40.0000,     8.0000
    1004,    16.0000,    40.0000,     8.0000
    1005,    20.0000,    40.0000,     8.0000
    1006,     0.0000,    44.0000,     8.0000
    1007,     4.0000,    44.0000,     8.0000
    1008,     8.0000,    44.0000,     8.0000
    1009,    12.0000,    44.0000,     8.0000
    1010,    16.0000,    44.0000,     8.0000
    1011,    20.0000,    44.0000,     8.0000
    1012,     0.0000,    48.0000,     8.0000
    1013,     4.0000,    48.0000,     8.0000
    1014,     8.0000,    48.0000,     8.0000
    1015,    12.0000,    48.0000,     8.0000
    1016,    16.0000,    48.0000,     8.0000
    1017,    20.0000,    48.0000,     8.0000
    1018,     0.0000,    52.0000,     8.0000
    1019,     4.0000,    52.0000,     8.0000
    1020,     8.0000,    52.0000,     8.0000
    1021,    12.0000,    52.0000,     8.0000
    1022,    16.0000,    52.0000,     8.0000
    1023,    20.0000,    52.0000,     8.0000
    1024,     0.0000,    56.0000,     8.0000
    1025,     4.0000,    56.0000,     8.0000
    1026,     8.0000,    56.0000,     8.0000
    1027,    12.0000,    56.0000,     8.0000
    1028,    16.0000,    56.0000,     8.0000
    1029,    20.0000,    56.0000,     8.0000
    1030,     0.0000,    60.0000,     8.0000
    1031,     4.0000,    60.0000,     8.0000
    1032,     8.0000,    60.0000,     8.0000
    1033,    12.0000,    60.0000,     8.0000
    1034,    16.0000,    60.0000,     8.0000
    1035,    20.0000,    60.0000,     8.0000
    1036,     0.0000,    64.0000,     8.0000
    1037,     4.0000,    64.0000,     8.0000
    1038,     8.0000,    64.0000,     8.0000
    1039,    12.0000,    64.0000,     8.0000
    1040,    16.0000,    64.0000,     8.0000
    1041,    20.0000,    64.0000,     8.0000
    1042,     0.0000,    68.0000,     8.0000
    1043,     4.0000,    68.0000,     8.0000
    1044,     8.0000,    68.0000,     8.0000
    1045,    12.0000,    68.0000,     8.0000
    1046,    16.0000,    68.0000,     8.0000
    1047,    20.0000,    68.0000,     8.0000
    1048,     0.0000,    72.0000,     8.0000
    1049,     4.0000,    72.0000,     8.0000
    1050,     8.0000,    72.0000,     8.0000
    1051,    12.0000,    72.0000,     8.0000
    1052,    16.0000,    72.0000,     8.0000
    1053,    20.0000,    72.0000,     8.0000
    1054,     0.0000,    76.0000,     8.0000
    1055,     4.0000,    76.0000,     8.0000
    1056,     8.0000,    76.0000,     8.0000
    1057,    12.0000,    76.0000,     8.0000
    1058,    16.0000,    76.0000,     8.0000
    1059,    20.0000,    76.0000,     8.0000
    1060,     0.0000,    80.0000,     8.0000
    1061,     4.0000,    80.0000,     8.0000
    1062,     8.0000,    80.0000,     8.0000
    1063,    12.0000,    80.0000,     8.0000
    1064,    16.0000,    80.0000,     8.0000
    1065,    20.0000,    80.0000,     8.0000
    1066,     0.0000,     0.0000,    10.0000
    1067,     4.0000,     0.0000,    10.0000
    1068,     8.0000,     0.0000,    10.0000
    1069,    12.0000,     0.0000,    10.0000
    1070,    16.0000,     0.0000,    10.0000
    1071,    20.0000,     0.0000,    10.0000
    1072,    24.0000,     0.0000,    10.0000
    1073,    28.0000,     0.0000,    10.0000
    1074,    32.0000,     0.0000,    10.0000
    1075,    36.0000,     0.0000,    10.0000
    1076,    40.0000,     0.0000,    10.0000
    1077,    44.0000,     0.0000,    10.0000
    1078,    48.0000,     0.0000,    10.0000
    1079,    52.0000,     0.0000,    10.0000
    1080,    56.0000,     0.0000,    10.0000
    1081,    60.0000,     0.0000,    10.0000
    1082,    64.0000,     0.0000,    10.0000
    1083,    68.0000,     0.0000,    10.0000
    1084,    72.0000,     0.0000,    10.0000
    1085,    76.0000,     0.0000,    10.0000
    1086,    80.0000,     0.0000,    10.0000
    1087,     0.0000,     4.0000,    10.0000
    1088,     4.0000,     4.0000,    10.0000
    1089,     8.0000,     4.0000,    10.0000
    1090,    12.0000,     4.0000,    10.0000
    1091,    16.0000,     4.0000,    10.0000
    1092,    20.0000,     4.0000,    10.0000
    1093,    24.0000,     4.0000,    10.0000
    1094,    28.0000,     4.0000,    10.0000
    1095,    32.0000,     4.0000,    10.0000
    1096,    36.0000,     4.0000,    10.0000
    1097,    40.0000,     4.0000,    10.0000
    1098,    44.0000,     4.0000,    10.0000
    1099,    48.0000,     4.0000,    10.0000
    1100,    52.0000,     4.0000,    10.0000
    1101,    56.0000,     4.0000,    10.0000
    1102,    60.0000,     4.0000,    10.0000
    1103,    64.0000,     4.0000,    10.0000
    1104,    68.0000,     4.0000,    10.0000
    1105,    72.0000,     4.0000,    10.0000
    1106,    76.0000,     4.0000,    10.0000
    1107,    80.0000,     4.0000,    10.0000
    1108,     0.0000,     8.0000,    10.0000
    1109,     4.0000,     8.0000,    10.0000
    1110,     8.0000,     8.0000,    10.0000
    1111,    12.0000,     8.0000,    10.0000
    1112,    16.0000,     8.0000,    10.0000
    1113,    20.0000,     8.0000,    10.0000
    1114,    24.0000,     8.0000,    10.0000
    1115,    28.0000,     8.0000,    10.0000
    1116,    32.0000,     8.0000,    10.0000
    1117,    36.0000,     8.0000,    10.0000
    1118,    40.0000,     8.0000,    10.0000
    1119,    44.0000,     8.0000,    10.0000
    1120,    48.0000,     8.0000,    10.0000
    1121,    52.0000,     8.0000,    10.0000
    1122,    56.0000,     8.0000,    10.0000
    1123,    60.0000,     8.0000,    10.0000
    1124,    64.0000,     8.0000,    10.0000
    1125,    68.0000,     8.0000,    10.0000
    1126,    72.0000,     8.0000,    10.0000
    1127,    76.0000,     8.0000,    10.0000
    1128,    80.0000,     8.0000,    10.0000
    1129,     0.0000,    12.0000,    10.0000
    1130,     4.0000,    12.0000,    10.0000
    1131,     8.0000,    12.0000,    10.0000
    1132,    12.0000,    12.0000,    10.0000
    1133,    16.0000,    12.0000,    10.0000
    1134,    20.0000,    12.0000,    10.0000
    1135,    24.0000,    12.0000,    10.0000
    1136,    28.0000,    12.0000,    10.0000
    1137,    32.0000,    12.0000,    10.0000
    1138,    36.0000,    12.0000,    10.0000
    1139,    40.0000,    12.0000,    10.0000
    1140,    44.0000,    12.0000,    10.0000
    1141,    48.0000,    12.0000,    10.0000
    1142,    52.0000,    12.0000,    10.0000
    1143,    56.0000,    12.0000,    10.0000
    1144,    60.0000,    12.0000,    10.0000
    1145,    64.0000,    12.0000,    10.0000
    1146,    68.0000,    12.0000,    10.0000
    1147,    72.0000,    12.0000,    10.0000
    1148,    76.0000,    12.0000,    10.0000
    1149,    80.0000,    12.0000,    10.0000
    1150,     0.0000,    16.0000,    10.0000
    1151,     4.0000,    16.0000,    10.0000
    1152,     8.0000,    16.0000,    10.0000
    1153,    12.0000,    16.0000,    10.0000
    1154,    16.0000,    16.0000,    10.0000
    1155,    20.0000,    16.0000,    10.0000
    1156,    24.0000,    16.0000,    10.0000
    1157,    28.0000,    16.0000,    10.0000
    1158,    32.0000,    16.0000,    10.0000
    1159,    36.0000,    16.0000,    10.0000
    1160,    40.0000,    16.0000,    10.0000
    1161,    44.0000,    16.0000,    10.0000
    1162,    48.0000,    16.0000,    10.0000
    1163,    52.0000,    16.0000,    10.0000
    1164,    56.0000,    16.0000,    10.0000
    1165,    60.0000,    16.0000,    10.0000
    1166,    64.0000,    16.0000,    10.0000
    1167,    68.0000,    16.0000,    10.0000
    1168,    72.0000,    16.0000,    10.0000
    1169,    76.0000,    16.0000,    10.0000
    1170,    80.0000,    16.0000,    10.0000
    1171,     0.0000,    20.0000,    10.0000
    1172,     4.0000,    20.0000,    10.0000
    1173,     8.0000,    20.0000,    10.0000
    1174,    12.0000,    20.0000,    10.0000
    1175,    16.0000,    20.0000,    10.0000
    1176,    28.0000,    20.0000,    10.0000
    1177,    32.0000,    20.0000,    10.0000
    1178,    36.0000,    20.0000,    10.0000
    1179,    40.0000,    20.0000,    10.0000
    1180,    44.0000,    20.0000,    10.0000
    1181,    48.0000,    20.0000,    10.0000
    1182,    52.0000,    20.0000,    10.0000
    1183,    56.0000,    20.0000,    10.0000
    1184,    60.0000,    20.0000,    10.0000
    1185,    64.0000,    20.0000,    10.0000
    1186,    68.0000,    20.0000,    10.0000
    1187,    72.0000,    20.0000,    10.0000
    1188,    76.0000,    20.0000,    10.0000
    1189,    80.0000,    20.0000,    10.0000
    1190,     0.0000,    24.0000,    10.0000
    1191,     4.0000,    24.0000,    10.0000
    1192,     8.0000,    24.0000,    10.0000
    1193,    12.0000,    24.0000,    10.0000
    1194,    16.0000,    24.0000,    10.0000
    1195,     0.0000,    28.0000,    10.0000
    1196,     4.0000,    28.0000,    10.0000
    1197,     8.0000,    28.0000,    10.0000
    1198,    12.0000,    28.0000,    10.0000
    1199,    16.0000,    28.0000,    10.0000
    1200,    20.0000,    28.0000,    10.0000
    1201,     0.0000,    32.0000,    10.0000
    1202,     4.0000,    32.0000,    10.0000
    1203,     8.0000,    32.0000,    10.0000
    1204,    12.0000,    32.0000,    10.0000
    1205,    16.0000,    32.0000,    10.0000
    1206,    20.0000,    32.0000,    10.0000
    1207,     0.0000,    36.0000,    10.0000
    1208,     4.0000,    36.0000,    10.0000
    1209,     8.0000,    36.0000,    10.0000
    1210,    12.0000,    36.0000,    10.0000
    1211,    16.0000,    36.0000,    10.0000
    1212,    20.0000,    36.0000,    10.0000
    1213,     0.0000,    40.0000,    10.0000
    1214,     4.0000,    40.0000,    10.0000
    1215,     8.0000,    40.0000,    10.0000
    1216,    12.0000,    40.0000,    10.0000
    1217,    16.0000,    40.0000,    10.0000
    1218,    20.0000,    40.0000,    10.0000
    1219,     0.0000,    44.0000,    10.0000
    1220,     4.0000,    44.0000,    10.0000
    1221,     8.0000,    44.0000,    10.0000
    1222,    12.0000,    44.0000,    10.0000
    1223,    16.0000,    44.0000,    10.0000
    1224,    20.0000,    44.0000,    10.0000
    1225,     0.0000,    48.0000,    10.0000
    1226,     4.0000,    48.0000,    10.0000
    1227,     8.0000,    48.0000,    10.0000
    1228,    12.0000,    48.0000,    10.0000
    1229,    16.0000,    48.0000,    10.0000
    1230,    20.0000,    48.0000,    10.0000
    1231,     0.0000,    52.0000,    10.0000
    1232,     4.0000,    52.0000,    10.0000
    1233,     8.0000,    52.0000,    10.0000
    1234,    12.0000,    52.0000,    10.0000
    1235,    16.0000,    52.0000,    10.0000
    1236,    20.0000,    52.0000,    10.0000
    1237,     0.0000,    56.0000,    10.0000
    1238,     4.0000,    56.0000,    10.0000
    1239,     8.0000,    56.0000,    10.0000
    1240,    12.0000,    56.0000,    10.0000
    1241,    16.0000,    56.0000,    10.0000
    1242,    20.0000,    56.0000,    10.0000
    1243,     0.0000,    60.0000,    10.0000
    1244,     4.0000,    60.0000,    10.0000
    1245,     8.0000,    60.0000,    10.0000
    1246,    12.0000,    60.0000,    10.0000
    1247,    16.0000,    60.0000,    10.0000
    1248,    20.0000,    60.0000,    10.0000
    1249,     0.0000,    64.0000,    10.0000
    1250,     4.0000,    64.0000,    10.0000
    1251,     8.0000,    64.0000,    10.0000
    1252,    12.0000,    64.0000,    10.0000
    1253,    16.0000,    64.0000,    10.0000
    1254,    20.0000,    64.0000,    10.0000
    1255,     0.0000,    68.0000,    10.0000
    1256,     4.0000,    68.0000,    10.0000
    1257,     8.0000,    68.0000,    10.0000
    1258,    12.0000,    68.0000,    10.0000
    1259,    16.0000,    68.0000,    10.0000
    1260,    20.0000,    68.0000,    10.0000
    1261,     0.0000,    72.0000,    10.0000
    1262,     4.0000,    72.0000,    10.0000
    1263,     8.0000,    72.0000,    10.0000
    1264,    12.0000,    72.0000,    10.0000
    1265,    16.0000,    72.0000,    10.0000
    1266,    20.0000,    72.0000,    10.0000
    1267,     0.0000,    76.0000,    10.0000
    1268,     4.0000,    76.0000,    10.0000
    1269,     8.0000,    76.0000,    10.0000
    1270,    12.0000,    76.0000,    10.0000
    1271,    16.0000,    76.0000,    10.0000
    1272,    20.0000,    76.0000,    10.0000
    1273,     0.0000,    80.0000,    10.0000
    1274,     4.0000,    80.0000,    10.0000
    1275,     8.0000,    80.0000,    10.0000
    1276,    12.0000,    80.0000,    10.0000
    1277,    16.0000,    80.0000,    10.0000
    1278,    20.0000,    80.0000,    10.0000

*ELEMENT, TYPE=C3D8, ELSET=EALL
       1, 1,2,23,22, 214,215,236,235
       2, 2,3,24,23, 215,216,237,236
       3, 3,4,25,24, 216,217,238,237
       4, 4,5,26,25, 217,218,239,238
       5, 5,6,27,26, 218,219,240,239
       6, 6,7,28,27, 219,220,241,240
       7, 7,8,29,28, 220,221,242,241
       8, 8,9,30,29, 221,222,243,242
       9, 9,10,31,30, 222,223,244,243
      10, 10,11,32,31, 223,224,245,244
      11, 11,12,33,32, 224,225,246,245
      12, 12,13,34,33, 225,226,247,246
      13, 13,14,35,34, 226,227,248,247
      14, 14,15,36,35, 227,228,249,248
      15, 15,16,37,36, 228,229,250,249
      16, 16,17,38,37, 229,230,251,250
      17, 17,18,39,38, 230,231,252,251
      18, 18,19,40,39, 231,232,253,252
      19, 19,20,41,40, 232,233,254,253
      20, 20,21,42,41, 233,234,255,254
      21, 22,23,44,43, 235,236,257,256
      22, 23,24,45,44, 236,237,258,257
      23, 24,25,46,45, 237,238,259,258
      24, 25,26,47,46, 238,239,260,259
      25, 26,27,48,47, 239,240,261,260
      26, 27,28,49,48, 240,241,262,261
      27, 28,29,50,49, 241,242,263,262
      28, 29,30,51,50, 242,243,264,263
      29, 30,31,52,51, 243,244,265,264
      30, 31,32,53,52, 244,245,266,265
      31, 32,33,54,53, 245,246,267,266
      32, 33,34,55,54, 246,247,268,267
      33, 34,35,56,55, 247,248,269,268
      34, 35,36,57,56, 248,249,270,269
      35, 36,37,58,57, 249,250,271,270
      36, 37,38,59,58, 250,251,272,271
      37, 38,39,60,59, 251,252,273,272
      38, 39,40,61,60, 252,253,274,273
      39, 40,41,62,61, 253,254,275,274
      40, 41,42,63,62, 254,255,276,275
      41, 43,44,65,64, 256,257,278,277
      42, 44,45,66,65, 257,258,279,278
      43, 45,46,67,66, 258,259,280,279
      44, 46,47,68,67, 259,260,281,280
      45, 47,48,69,68, 260,261,282,281
      46, 48,49,70,69, 261,262,283,282
      47, 49,50,71,70, 262,263,284,283
      48, 50,51,72,71, 263,264,285,284
      49, 51,52,73,72, 264,265,286,285
      50, 52,53,74,73, 265,266,287,286
      51, 53,54,75,74, 266,267,288,287
      52, 54,55,76,75, 267,268,289,288
      53, 55,56,77,76, 268,269,290,289
      54, 56,57,78,77, 269,270,291,290
      55, 57,58,79,78, 270,271,292,291
      56, 58,59,80,79, 271,272,293,292
      57, 59,60,81,80, 272,273,294,293
      58, 60,61,82,81, 273,274,295,294
      59, 61,62,83,82, 274,275,296,295
      60, 62,63,84,83, 275,276,297,296
      61, 64,65,86,85, 277,278,299,298
      62, 65,66,87,86, 278,279,300,299
      63, 66,67,88,87, 279,280,301,300
      64, 67,68,89,88, 280,281,302,301
      65, 68,69,90,89, 281,282,303,302
      66, 69,70,91,90, 282,283,304,303
      67, 70,71,92,91, 283,284,305,304
      68, 71,72,93,92, 284,285,306,305
      69, 72,73,94,93, 285,286,307,306
      70, 73,74,95,94, 286,287,308,307
      71, 74,75,96,95, 287,288,309,308
      72, 75,76,97,96, 288,289,310,309
      73, 76,77,98,97, 289,290,311,310
      74, 77,78,99,98, 290,291,312,311
      75, 78,79,100,99, 291,292,313,312
      76, 79,80,101,100, 292,293,314,313
      77, 80,81,102,101, 293,294,315,314
      78, 81,82,103,102, 294,295,316,315
      79, 82,83,104,103, 295,296,317,316
      80, 83,84,105,104, 296,297,318,317
      81, 85,86,107,106, 298,299,320,319
      82, 86,87,108,107, 299,300,321,320
      83, 87,88,109,108, 300,301,322,321
      84, 88,89,110,109, 301,302,323,322
      85, 92,93,112,111, 305,306,325,324
      86, 93,94,113,112, 306,307,326,325
      87, 94,95,114,113, 307,308,327,326
      88, 95,96,115,114, 308,309,328,327
      89, 96,97,116,115, 309,310,329,328
      90, 97,98,117,116, 310,311,330,329
      91, 98,99,118,117, 311,312,331,330
      92, 99,100,119,118, 312,313,332,331
      93, 100,101,120,119, 313,314,333,332
      94, 101,102,121,120, 314,315,334,333
      95, 102,103,122,121, 315,316,335,334
      96, 103,104,123,122, 316,317,336,335
      97, 104,105,124,123, 317,318,337,336
      98, 106,107,126,125, 319,320,339,338
      99, 107,108,127,126, 320,321,340,339
     100, 108,109,128,127, 321,322,341,340
     101, 109,110,129,128, 322,323,342,341
     102, 125,126,131,130, 338,339,344,343
     103, 126,127,132,131, 339,340,345,344
     104, 127,128,133,132, 340,341,346,345
     105, 128,129,134,133, 341,342,347,346
     106, 130,131,137,136, 343,344,350,349
     107, 131,132,138,137, 344,345,351,350
     108, 132,133,139,138, 345,346,352,351
     109, 133,134,140,139, 346,347,353,352
     110, 134,135,141,140, 347,348,354,353
     111, 136,137,143,142, 349,350,356,355
     112, 137,138,144,143, 350,351,357,356
     113, 138,139,145,144, 351,352,358,357
     114, 139,140,146,145, 352,353,359,358
     115, 140,141,147,146, 353,354,360,359
     116, 142,143,149,148, 355,356,362,361
     117, 143,144,150,149, 356,357,363,362
     118, 144,145,151,150, 357,358,364,363
     119, 145,146,152,151, 358,359,365,364
     120, 146,147,153,152, 359,360,366,365
     121, 148,149,155,154, 361,362,368,367
     122, 149,150,156,155, 362,363,369,368
     123, 150,151,157,156, 363,364,370,369
     124, 151,152,158,157, 364,365,371,370
     125, 152,153,159,158, 365,366,372,371
     126, 154,155,161,160, 367,368,374,373
     127, 155,156,162,161, 368,369,375,374
     128, 156,157,163,162, 369,370,376,375
     129, 157,158,164,163, 370,371,377,376
     130, 158,159,165,164, 371,372,378,377
     131, 160,161,167,166, 373,374,380,379
     132, 161,162,168,167, 374,375,381,380
     133, 162,163,169,168, 375,376,382,381
     134, 163,164,170,169, 376,377,383,382
     135, 164,165,171,170, 377,378,384,383
     136, 166,167,173,172, 379,380,386,385
     137, 167,168,174,173, 380,381,387,386
     138, 168,169,175,174, 381,382,388,387
     139, 169,170,176,175, 382,383,389,388
     140, 170,171,177,176, 383,384,390,389
     141, 172,173,179,178, 385,386,392,391
     142, 173,174,180,179, 386,387,393,392
     143, 174,175,181,180, 387,388,394,393
     144, 175,176,182,181, 388,389,395,394
     145, 176,177,183,182, 389,390,396,395
     146, 178,179,185,184, 391,392,398,397
     147, 179,180,186,185, 392,393,399,398
     148, 180,181,187,186, 393,394,400,399
     149, 181,182,188,187, 394,395,401,400
     150, 182,183,189,188, 395,396,402,401
     151, 184,185,191,190, 397,398,404,403
     152, 185,186,192,191, 398,399,405,404
     153, 186,187,193,192, 399,400,406,405
     154, 187,188,194,193, 400,401,407,406
     155, 188,189,195,194, 401,402,408,407
     156, 190,191,197,196, 403,404,410,409
     157, 191,192,198,197, 404,405,411,410
     158, 192,193,199,198, 405,406,412,411
     159, 193,194,200,199, 406,407,413,412
     160, 194,195,201,200, 407,408,414,413
     161, 196,197,203,202, 409,410,416,415
     162, 197,198,204,203, 410,411,417,416
     163, 198,199,205,204, 411,412,418,417
     164, 199,200,206,205, 412,413,419,418
     165, 200,201,207,206, 413,414,420,419
     166, 202,203,209,208, 415,416,422,421
     167, 203,204,210,209, 416,417,423,422
     168, 204,205,211,210, 417,418,424,423
     169, 205,206,212,211, 418,419,425,424
     170, 206,207,213,212, 419,420,426,425
     171, 214,215,236,235, 427,428,449,448
     172, 215,216,237,236, 428,429,450,449
     173, 216,217,238,237, 429,430,451,450
     174, 217,218,239,238, 430,431,452,451
     175, 218,219,240,239, 431,432,453,452
     176, 219,220,241,240, 432,433,454,453
     177, 220,221,242,241, 433,434,455,454
     178, 221,222,243,242, 434,435,456,455
     179, 222,223,244,243, 435,436,457,456
     180, 223,224,245,244, 436,437,458,457
     181, 224,225,246,245, 437,438,459,458
     182, 225,226,247,246, 438,439,460,459
     183, 226,227,248,247, 439,440,461,460
     184, 227,228,249,248, 440,441,462,461
     185, 228,229,250,249, 441,442,463,462
     186, 229,230,251,250, 442,443,464,463
     187, 230,231,252,251, 443,444,465,464
     188, 231,232,253,252, 444,445,466,465
     189, 232,233,254,253, 445,446,467,466
     190, 233,234,255,254, 446,447,468,467
     191, 235,236,257,256, 448,449,470,469
     192, 236,237,258,257, 449,450,471,470
     193, 237,238,259,258, 450,451,472,471
     194, 238,239,260,259, 451,452,473,472
     195, 239,240,261,260, 452,453,474,473
     196, 240,241,262,261, 453,454,475,474
     197, 241,242,263,262, 454,455,476,475
     198, 242,243,264,263, 455,456,477,476
     199, 243,244,265,264, 456,457,478,477
     200, 244,245,266,265, 457,458,479,478
     201, 245,246,267,266, 458,459,480,479
     202, 246,247,268,267, 459,460,481,480
     203, 247,248,269,268, 460,461,482,481
     204, 248,249,270,269, 461,462,483,482
     205, 249,250,271,270, 462,463,484,483
     206, 250,251,272,271, 463,464,485,484
     207, 251,252,273,272, 464,465,486,485
     208, 252,253,274,273, 465,466,487,486
     209, 253,254,275,274, 466,467,488,487
     210, 254,255,276,275, 467,468,489,488
     211, 256,257,278,277, 469,470,491,490
     212, 257,258,279,278, 470,471,492,491
     213, 258,259,280,279, 471,472,493,492
     214, 259,260,281,280, 472,473,494,493
     215, 260,261,282,281, 473,474,495,494
     216, 261,262,283,282, 474,475,496,495
     217, 262,263,284,283, 475,476,497,496
     218, 263,264,285,284, 476,477,498,497
     219, 264,265,286,285, 477,478,499,498
     220, 265,266,287,286, 478,479,500,499
     221, 266,267,288,287, 479,480,501,500
     222, 267,268,289,288, 480,481,502,501
     223, 268,269,290,289, 481,482,503,502
     224, 269,270,291,290, 482,483,504,503
     225, 270,271,292,291, 483,484,505,504
     226, 271,272,293,292, 484,485,506,505
     227, 272,273,294,293, 485,486,507,506
     228, 273,274,295,294, 486,487,508,507
     229, 274,275,296,295, 487,488,509,508
     230, 275,276,297,296, 488,489,510,509
     231, 277,278,299,298, 490,491,512,511
     232, 278,279,300,299, 491,492,513,512
     233, 279,280,301,300, 492,493,514,513
     234, 280,281,302,301, 493,494,515,514
     235, 281,282,303,302, 494,495,516,515
     236, 282,283,304,303, 495,496,517,516
     237, 283,284,305,304, 496,497,518,517
     238, 284,285,306,305, 497,498,519,518
     239, 285,286,307,306, 498,499,520,519
     240, 286,287,308,307, 499,500,521,520
     241, 287,288,309,308, 500,501,522,521
     242, 288,289,310,309, 501,502,523,522
     243, 289,290,311,310, 502,503,524,523
     244, 290,291,312,311, 503,504,525,524
     245, 291,292,313,312, 504,505,526,525
     246, 292,293,314,313, 505,506,527,526
     247, 293,294,315,314, 506,507,528,527
     248, 294,295,316,315, 507,508,529,528
     249, 295,296,317,316, 508,509,530,529
     250, 296,297,318,317, 509,510,531,530
     251, 298,299,320,319, 511,512,533,532
     252, 299,300,321,320, 512,513,534,533
     253, 300,301,322,321, 513,514,535,534
     254, 301,302,323,322, 514,515,536,535
     255, 305,306,325,324, 518,519,538,537
     256, 306,307,326,325, 519,520,539,538
     257, 307,308,327,326, 520,521,540,539
     258, 308,309,328,327, 521,522,541,540
     259, 309,310,329,328, 522,523,542,541
     260, 310,311,330,329, 523,524,543,542
     261, 311,312,331,330, 524,525,544,543
     262, 312,313,332,331, 525,526,545,544
     263, 313,314,333,332, 526,527,546,545
     264, 314,315,334,333, 527,528,547,546
     265, 315,316,335,334, 528,529,548,547
     266, 316,317,336,335, 529,530,549,548
     267, 317,318,337,336, 530,531,550,549
     268, 319,320,339,338, 532,533,552,551
     269, 320,321,340,339, 533,534,553,552
     270, 321,322,341,340, 534,535,554,553
     271, 322,323,342,341, 535,536,555,554
     272, 338,339,344,343, 551,552,557,556
     273, 339,340,345,344, 552,553,558,557
     274, 340,341,346,345, 553,554,559,558
     275, 341,342,347,346, 554,555,560,559
     276, 343,344,350,349, 556,557,563,562
     277, 344,345,351,350, 557,558,564,563
     278, 345,346,352,351, 558,559,565,564
     279, 346,347,353,352, 559,560,566,565
     280, 347,348,354,353, 560,561,567,566
     281, 349,350,356,355, 562,563,569,568
     282, 350,351,357,356, 563,564,570,569
     283, 351,352,358,357, 564,565,571,570
     284, 352,353,359,358, 565,566,572,571
     285, 353,354,360,359, 566,567,573,572
     286, 355,356,362,361, 568,569,575,574
     287, 356,357,363,362, 569,570,576,575
     288, 357,358,364,363, 570,571,577,576
     289, 358,359,365,364, 571,572,578,577
     290, 359,360,366,365, 572,573,579,578
     291, 361,362,368,367, 574,575,581,580
     292, 362,363,369,368, 575,576,582,581
     293, 363,364,370,369, 576,577,583,582
     294, 364,365,371,370, 577,578,584,583
     295, 365,366,372,371, 578,579,585,584
     296, 367,368,374,373, 580,581,587,586
     297, 368,369,375,374, 581,582,588,587
     298, 369,370,376,375, 582,583,589,588
     299, 370,371,377,376, 583,584,590,589
     300, 371,372,378,377, 584,585,591,590
     301, 373,374,380,379, 586,587,593,592
     302, 374,375,381,380, 587,588,594,593
     303, 375,376,382,381, 588,589,595,594
     304, 376,377,383,382, 589,590,596,595
     305, 377,378,384,383, 590,591,597,596
     306, 379,380,386,385, 592,593,599,598
     307, 380,381,387,386, 593,594,600,599
     308, 381,382,388,387, 594,595,601,600
     309, 382,383,389,388, 595,596,602,601
     310, 383,384,390,389, 596,597,603,602
     311, 385,386,392,391, 598,599,605,604
     312, 386,387,393,392, 599,600,606,605
     313, 387,388,394,393, 600,601,607,606
     314, 388,389,395,394, 601,602,608,607
     315, 389,390,396,395, 602,603,609,608
     316, 391,392,398,397, 604,605,611,610
     317, 392,393,399,398, 605,606,612,611
     318, 393,394,400,399, 606,607,613,612
     319, 394,395,401,400, 607,608,614,613
     320, 395,396,402,401, 608,609,615,614
     321, 397,398,404,403, 610,611,617,616
     322, 398,399,405,404, 611,612,618,617
     323, 399,400,406,405, 612,613,619,618
     324, 400,401,407,406, 613,614,620,619
     325, 401,402,408,407, 614,615,621,620
     326, 403,404,410,409, 616,617,623,622
     327, 404,405,411,410, 617,618,624,623
     328, 405,406,412,411, 618,619,625,624
     329, 406,407,413,412, 619,620,626,625
     330, 407,408,414,413, 620,621,627,626
     331, 409,410,416,415, 622,623,629,628
     332, 410,411,417,416, 623,624,630,629
     333, 411,412,418,417, 624,625,631,630
     334, 412,413,419,418, 625,626,632,631
     335, 413,414,420,419, 626,627,633,632
     336, 415,416,422,421, 628,629,635,634
     337, 416,417,423,422, 629,630,636,635
     338, 417,418,424,423, 630,631,637,636
     339, 418,419,425,424, 631,632,638,637
     340, 419,420,426,425, 632,633,639,638
     341, 427,428,449,448, 640,641,662,661
     342, 428,429,450,449, 641,642,663,662
     343, 429,430,451,450, 642,643,664,663
     344, 430,431,452,451, 643,644,665,664
     345, 431,432,453,452, 644,645,666,665
     346, 432,433,454,453, 645,646,667,666
     347, 433,434,455,454, 646,647,668,667
     348, 434,435,456,455, 647,648,669,668
     349, 435,436,457,456, 648,649,670,669
     350, 436,437,458,457, 649,650,671,670
     351, 437,438,459,458, 650,651,672,671
     352, 438,439,460,459, 651,652,673,672
     353, 439,440,461,460, 652,653,674,673
     354, 440,441,462,461, 653,654,675,674
     355, 441,442,463,462, 654,655,676,675
     356, 442,443,464,463, 655,656,677,676
     357, 443,444,465,464, 656,657,678,677
     358, 444,445,466,465, 657,658,679,678
     359, 445,446,467,466, 658,659,680,679
     360, 446,447,468,467, 659,660,681,680
     361, 448,449,470,469, 661,662,683,682
     362, 449,450,471,470, 662,663,684,683
     363, 450,451,472,471, 663,664,685,684
     364, 451,452,473,472, 664,665,686,685
     365, 452,453,474,473, 665,666,687,686
     366, 453,454,475,474, 666,667,688,687
     367, 454,455,476,475, 667,668,689,688
     368, 455,456,477,476, 668,669,690,689
     369, 456,457,478,477, 669,670,691,690
     370, 457,458,479,478, 670,671,692,691
     371, 458,459,480,479, 671,672,693,692
     372, 459,460,481,480, 672,673,694,693
     373, 460,461,482,481, 673,674,695,694
     374, 461,462,483,482, 674,675,696,695
     375, 462,463,484,483, 675,676,697,696
     376, 463,464,485,484, 676,677,698,697
     377, 464,465,486,485, 677,678,699,698
     378, 465,466,487,486, 678,679,700,699
     379, 466,467,488,487, 679,680,701,700
     380, 467,468,489,488, 680,681,702,701
     381, 469,470,491,490, 682,683,704,703
     382, 470,471,492,491, 683,684,705,704
     383, 471,472,493,492, 684,685,706,705
     384, 472,473,494,493, 685,686,707,706
     385, 473,474,495,494, 686,687,708,707
     386, 474,475,496,495, 687,688,709,708
     387, 475,476,497,496, 688,689,710,709
     388, 476,477,498,497, 689,690,711,710
     389, 477,478,499,498, 690,691,712,711
     390, 478,479,500,499, 691,692,713,712
     391, 479,480,501,500, 692,693,714,713
     392, 480,481,502,501, 693,694,715,714
     393, 481,482,503,502, 694,695,716,715
     394, 482,483,504,503, 695,696,717,716
     395, 483,484,505,504, 696,697,718,717
     396, 484,485,506,505, 697,698,719,718
     397, 485,486,507,506, 698,699,720,719
     398, 486,487,508,507, 699,700,721,720
     399, 487,488,509,508, 700,701,722,721
     400, 488,489,510,509, 701,702,723,722
     401, 490,491,512,511, 703,704,725,724
     402, 491,492,513,512, 704,705,726,725
     403, 492,493,514,513, 705,706,727,726
     404, 493,494,515,514, 706,707,728,727
     405, 494,495,516,515, 707,708,729,728
     406, 495,496,517,516, 708,709,730,729
     407, 496,497,518,517, 709,710,731,730
     408, 497,498,519,518, 710,711,732,731
     409, 498,499,520,519, 711,712,733,732
     410, 499,500,521,520, 712,713,734,733
     411, 500,501,522,521, 713,714,735,734
     412, 501,502,523,522, 714,715,736,735
     413, 502,503,524,523, 715,716,737,736
     414, 503,504,525,524, 716,717,738,737
     415, 504,505,526,525, 717,718,739,738
     416, 505,506,527,526, 718,719,740,739
     417, 506,507,528,527, 719,720,741,740
     418, 507,508,529,528, 720,721,742,741
     419, 508,509,530,529, 721,722,743,742
     420, 509,510,531,530, 722,723,744,743
     421, 511,512,533,532, 724,725,746,745
     422, 512,513,534,533, 725,726,747,746
     423, 513,514,535,534, 726,727,748,747
     424, 514,515,536,535, 727,728,749,748
     425, 518,519,538,537, 731,732,751,750
     426, 519,520,539,538, 732,733,752,751
     427, 520,521,540,539, 733,734,753,752
     428, 521,522,541,540, 734,735,754,753
     429, 522,523,542,541, 735,736,755,754
     430, 523,524,543,542, 736,737,756,755
     431, 524,525,544,543, 737,738,757,756
     432, 525,526,545,544, 738,739,758,757
     433, 526,527,546,545, 739,740,759,758
     434, 527,528,547,546, 740,741,760,759
     435, 528,529,548,547, 741,742,761,760
     436, 529,530,549,548, 742,743,762,761
     437, 530,531,550,549, 743,744,763,762
     438, 532,533,552,551, 745,746,765,764
     439, 533,534,553,552, 746,747,766,765
     440, 534,535,554,553, 747,748,767,766
     441, 535,536,555,554, 748,749,768,767
     442, 551,552,557,556, 764,765,770,769
     443, 552,553,558,557, 765,766,771,770
     444, 553,554,559,558, 766,767,772,771
     445, 554,555,560,559, 767,768,773,772
     446, 556,557,563,562, 769,770,776,775
     447, 557,558,564,563, 770,771,777,776
     448, 558,559,565,564, 771,772,778,777
     449, 559,560,566,565, 772,773,779,778
     450, 560,561,567,566, 773,774,780,779
     451, 562,563,569,568, 775,776,782,781
     452, 563,564,570,569, 776,777,783,782
     453, 564,565,571,570, 777,778,784,783
     454, 565,566,572,571, 778,779,785,784
     455, 566,567,573,572, 779,780,786,785
     456, 568,569,575,574, 781,782,788,787
     457, 569,570,576,575, 782,783,789,788
     458, 570,571,577,576, 783,784,790,789
     459, 571,572,578,577, 784,785,791,790
     460, 572,573,579,578, 785,786,792,791
     461, 574,575,581,580, 787,788,794,793
     462, 575,576,582,581, 788,789,795,794
     463, 576,577,583,582, 789,790,796,795
     464, 577,578,584,583, 790,791,797,796
     465, 578,579,585,584, 791,792,798,797
     466, 580,581,587,586, 793,794,800,799
     467, 581,582,588,587, 794,795,801,800
     468, 582,583,589,588, 795,796,802,801
     469, 583,584,590,589, 796,797,803,802
     470, 584,585,591,590, 797,798,804,803
     471, 586,587,593,592, 799,800,806,805
     472, 587,588,594,593, 800,801,807,806
     473, 588,589,595,594, 801,802,808,807
     474, 589,590,596,595, 802,803,809,808
     475, 590,591,597,596, 803,804,810,809
     476, 592,593,599,598, 805,806,812,811
     477, 593,594,600,599, 806,807,813,812
     478, 594,595,601,600, 807,808,814,813
     479, 595,596,602,601, 808,809,815,814
     480, 596,597,603,602, 809,810,816,815
     481, 598,599,605,604, 811,812,818,817
     482, 599,600,606,605, 812,813,819,818
     483, 600,601,607,606, 813,814,820,819
     484, 601,602,608,607, 814,815,821,820
     485, 602,603,609,608, 815,816,822,821
     486, 604,605,611,610, 817,818,824,823
     487, 605,606,612,611, 818,819,825,824
     488, 606,607,613,612, 819,820,826,825
     489, 607,608,614,613, 820,821,827,826
     490, 608,609,615,614, 821,822,828,827
     491, 610,611,617,616, 823,824,830,829
     492, 611,612,618,617, 824,825,831,830
     493, 612,613,619,618, 825,826,832,831
     494, 613,614,620,619, 826,827,833,832
     495, 614,615,621,620, 827,828,834,833
     496, 616,617,623,622, 829,830,836,835
     497, 617,618,624,623, 830,831,837,836
     498, 618,619,625,624, 831,832,838,837
     499, 619,620,626,625, 832,833,839,838
     500, 620,621,627,626, 833,834,840,839
     501, 622,623,629,628, 835,836,842,841
     502, 623,624,630,629, 836,837,843,842
     503, 624,625,631,630, 837,838,844,843
     504, 625,626,632,631, 838,839,845,844
     505, 626,627,633,632, 839,840,846,845
     506, 628,629,635,634, 841,842,848,847
     507, 629,630,636,635, 842,843,849,848
     508, 630,631,637,636, 843,844,850,849
     509, 631,632,638,637, 844,845,851,850
     510, 632,633,639,638, 845,846,852,851
     511, 640,641,662,661, 853,854,875,874
     512, 641,642,663,662, 854,855,876,875
     513, 642,643,664,663, 855,856,877,876
     514, 643,644,665,664, 856,857,878,877
     515, 644,645,666,665, 857,858,879,878
     516, 645,646,667,666, 858,859,880,879
     517, 646,647,668,667, 859,860,881,880
     518, 647,648,669,668, 860,861,882,881
     519, 648,649,670,669, 861,862,883,882
     520, 649,650,671,670, 862,863,884,883
     521, 650,651,672,671, 863,864,885,884
     522, 651,652,673,672, 864,865,886,885
     523, 652,653,674,673, 865,866,887,886
     524, 653,654,675,674, 866,867,888,887
     525, 654,655,676,675, 867,868,889,888
     526, 655,656,677,676, 868,869,890,889
     527, 656,657,678,677, 869,870,891,890
     528, 657,658,679,678, 870,871,892,891
     529, 658,659,680,679, 871,872,893,892
     530, 659,660,681,680, 872,873,894,893
     531, 661,662,683,682, 874,875,896,895
     532, 662,663,684,683, 875,876,897,896
     533, 663,664,685,684, 876,877,898,897
     534, 664,665,686,685, 877,878,899,898
     535, 665,666,687,686, 878,879,900,899
     536, 666,667,688,687, 879,880,901,900
     537, 667,668,689,688, 880,881,902,901
     538, 668,669,690,689, 881,882,903,902
     539, 669,670,691,690, 882,883,904,903
     540, 670,671,692,691, 883,884,905,904
     541, 671,672,693,692, 884,885,906,905
     542, 672,673,694,693, 885,886,907,906
     543, 673,674,695,694, 886,887,908,907
     544, 674,675,696,695, 887,888,909,908
     545, 675,676,697,696, 888,889,910,909
     546, 676,677,698,697, 889,890,911,910
     547, 677,678,699,698, 890,891,912,911
     548, 678,679,700,699, 891,892,913,912
     549, 679,680,701,700, 892,893,914,913
     550, 680,681,702,701, 893,894,915,914
     551, 682,683,704,703, 895,896,917,916
     552, 683,684,705,704, 896,897,918,917
     553, 684,685,706,705, 897,898,919,918
     554, 685,686,707,706, 898,899,920,919
     555, 686,687,708,707, 899,900,921,920
     556, 687,688,709,708, 900,901,922,921
     557, 688,689,710,709, 901,902,923,922
     558, 689,690,711,710, 902,903,924,923
     559, 690,691,712,711, 903,904,925,924
     560, 691,692,713,712, 904,905,926,925
     561, 692,693,714,713, 905,906,927,926
     562, 693,694,715,714, 906,907,928,927
     563, 694,695,716,715, 907,908,929,928
     564, 695,696,717,716, 908,909,930,929
     565, 696,697,718,717, 909,910,931,930
     566, 697,698,719,718, 910,911,932,931
     567, 698,699,720,719, 911,912,933,932
     568, 699,700,721,720, 912,913,934,933
     569, 700,701,722,721, 913,914,935,934
     570, 701,702,723,722, 914,915,936,935
     571, 703,704,725,724, 916,917,938,937
     572, 704,705,726,725, 917,918,939,938
     573, 705,706,727,726, 918,919,940,939
     574, 706,707,728,727, 919,920,941,940
     575, 707,708,729,728, 920,921,942,941
     576, 708,709,730,729, 921,922,943,942
     577, 709,710,731,730, 922,923,944,943
     578, 710,711,732,731, 923,924,945,944
     579, 711,712,733,732, 924,925,946,945
     580, 712,713,734,733, 925,926,947,946
     581, 713,714,735,734, 926,927,948,947
     582, 714,715,736,735, 927,928,949,948
     583, 715,716,737,736, 928,929,950,949
     584, 716,717,738,737, 929,930,951,950
     585, 717,718,739,738, 930,931,952,951
     586, 718,719,740,739, 931,932,953,952
     587, 719,720,741,740, 932,933,954,953
     588, 720,721,742,741, 933,934,955,954
     589, 721,722,743,742, 934,935,956,955
     590, 722,723,744,743, 935,936,957,956
     591, 724,725,746,745, 937,938,959,958
     592, 725,726,747,746, 938,939,960,959
     593, 726,727,748,747, 939,940,961,960
     594, 727,728,749,748, 940,941,962,961
     595, 731,732,751,750, 944,945,964,963
     596, 732,733,752,751, 945,946,965,964
     597, 733,734,753,752, 946,947,966,965
     598, 734,735,754,753, 947,948,967,966
     599, 735,736,755,754, 948,949,968,967
     600, 736,737,756,755, 949,950,969,968
     601, 737,738,757,756, 950,951,970,969
     602, 738,739,758,757, 951,952,971,970
     603, 739,740,759,758, 952,953,972,971
     604, 740,741,760,759, 953,954,973,972
     605, 741,742,761,760, 954,955,974,973
     606, 742,743,762,761, 955,956,975,974
     607, 743,744,763,762, 956,957,976,975
     608, 745,746,765,764, 958,959,978,977
     609, 746,747,766,765, 959,960,979,978
     610, 747,748,767,766, 960,961,980,979
     611, 748,749,768,767, 961,962,981,980
     612, 764,765,770,769, 977,978,983,982
     613, 765,766,771,770, 978,979,984,983
     614, 766,767,772,771, 979,980,985,984
     615, 767,768,773,772, 980,981,986,985
     616, 769,770,776,775, 982,983,989,988
     617, 770,771,777,776, 983,984,990,989
     618, 771,772,778,777, 984,985,991,990
     619, 772,773,779,778, 985,986,992,991
     620, 773,774,780,779, 986,987,993,992
     621, 775,776,782,781, 988,989,995,994
     622, 776,777,783,782, 989,990,996,995
     623, 777,778,784,783, 990,991,997,996
     624, 778,779,785,784, 991,992,998,997
     625, 779,780,786,785, 992,993,999,998
     626, 781,782,788,787, 994,995,1001,1000
     627, 782,783,789,788, 995,996,1002,1001
     628, 783,784,790,789, 996,997,1003,1002
     629, 784,785,791,790, 997,998,1004,1003
     630, 785,786,792,791, 998,999,1005,1004
     631, 787,788,794,793, 1000,1001,1007,1006
     632, 788,789,795,794, 1001,1002,1008,1007
     633, 789,790,796,795, 1002,1003,1009,1008
     634, 790,791,797,796, 1003,1004,1010,1009
     635, 791,792,798,797, 1004,1005,1011,1010
     636, 793,794,800,799, 1006,1007,1013,1012
     637, 794,795,801,800, 1007,1008,1014,1013
     638, 795,796,802,801, 1008,1009,1015,1014
     639, 796,797,803,802, 1009,1010,1016,1015
     640, 797,798,804,803, 1010,1011,1017,1016
     641, 799,800,806,805, 1012,1013,1019,1018
     642, 800,801,807,806, 1013,1014,1020,1019
     643, 801,802,808,807, 1014,1015,1021,1020
     644, 802,803,809,808, 1015,1016,1022,1021
     645, 803,804,810,809, 1016,1017,1023,1022
     646, 805,806,812,811, 1018,1019,1025,1024
     647, 806,807,813,812, 1019,1020,1026,1025
     648, 807,808,814,813, 1020,1021,1027,1026
     649, 808,809,815,814, 1021,1022,1028,1027
     650, 809,810,816,815, 1022,1023,1029,1028
     651, 811,812,818,817, 1024,1025,1031,1030
     652, 812,813,819,818, 1025,1026,1032,1031
     653, 813,814,820,819, 1026,1027,1033,1032
     654, 814,815,821,820, 1027,1028,1034,1033
     655, 815,816,822,821, 1028,1029,1035,1034
     656, 817,818,824,823, 1030,1031,1037,1036
     657, 818,819,825,824, 1031,1032,1038,1037
     658, 819,820,826,825, 1032,1033,1039,1038
     659, 820,821,827,826, 1033,1034,1040,1039
     660, 821,822,828,827, 1034,1035,1041,1040
     661, 823,824,830,829, 1036,1037,1043,1042
     662, 824,825,831,830, 1037,1038,1044,1043
     663, 825,826,832,831, 1038,1039,1045,1044
     664, 826,827,833,832, 1039,1040,1046,1045
     665, 827,828,834,833, 1040,1041,1047,1046
     666, 829,830,836,835, 1042,1043,1049,1048
     667, 830,831,837,836, 1043,1044,1050,1049
     668, 831,832,838,837, 1044,1045,1051,1050
     669, 832,833,839,838, 1045,1046,1052,1051
     670, 833,834,840,839, 1046,1047,1053,1052
     671, 835,836,842,841, 1048,1049,1055,1054
     672, 836,837,843,842, 1049,1050,1056,1055
     673, 837,838,844,843, 1050,1051,1057,1056
     674, 838,839,845,844, 1051,1052,1058,1057
     675, 839,840,846,845, 1052,1053,1059,1058
     676, 841,842,848,847, 1054,1055,1061,1060
     677, 842,843,849,848, 1055,1056,1062,1061
     678, 843,844,850,849, 1056,1057,1063,1062
     679, 844,845,851,850, 1057,1058,1064,1063
     680, 845,846,852,851, 1058,1059,1065,1064
     681, 853,854,875,874, 1066,1067,1088,1087
     682, 854,855,876,875, 1067,1068,1089,1088
     683, 855,856,877,876, 1068,1069,1090,1089
     684, 856,857,878,877, 1069,1070,1091,1090
     685, 857,858,879,878, 1070,1071,1092,1091
     686, 858,859,880,879, 1071,1072,1093,1092
     687, 859,860,881,880, 1072,1073,1094,1093
     688, 860,861,882,881, 1073,1074,1095,1094
     689, 861,862,883,882, 1074,1075,1096,1095
     690, 862,863,884,883, 1075,1076,1097,1096
     691, 863,864,885,884, 1076,1077,1098,1097
     692, 864,865,886,885, 1077,1078,1099,1098
     693, 865,866,887,886, 1078,1079,1100,1099
     694, 866,867,888,887, 1079,1080,1101,1100
     695, 867,868,889,888, 1080,1081,1102,1101
     696, 868,869,890,889, 1081,1082,1103,1102
     697, 869,870,891,890, 1082,1083,1104,1103
     698, 870,871,892,891, 1083,1084,1105,1104
     699, 871,872,893,892, 1084,1085,1106,1105
     700, 872,873,894,893, 1085,1086,1107,1106
     701, 874,875,896,895, 1087,1088,1109,1108
     702, 875,876,897,896, 1088,1089,1110,1109
     703, 876,877,898,897, 1089,1090,1111,1110
     704, 877,878,899,898, 1090,1091,1112,1111
     705, 878,879,900,899, 1091,1092,1113,1112
     706, 879,880,901,900, 1092,1093,1114,1113
     707, 880,881,902,901, 1093,1094,1115,1114
     708, 881,882,903,902, 1094,1095,1116,1115
     709, 882,883,904,903, 1095,1096,1117,1116
     710, 883,884,905,904, 1096,1097,1118,1117
     711, 884,885,906,905, 1097,1098,1119,1118
     712, 885,886,907,906, 1098,1099,1120,1119
     713, 886,887,908,907, 1099,1100,1121,1120
     714, 887,888,909,908, 1100,1101,1122,1121
     715, 888,889,910,909, 1101,1102,1123,1122
     716, 889,890,911,910, 1102,1103,1124,1123
     717, 890,891,912,911, 1103,1104,1125,1124
     718, 891,892,913,912, 1104,1105,1126,1125
     719, 892,893,914,913, 1105,1106,1127,1126
     720, 893,894,915,914, 1106,1107,1128,1127
     721, 895,896,917,916, 1108,1109,1130,1129
     722, 896,897,918,917, 1109,1110,1131,1130
     723, 897,898,919,918, 1110,1111,1132,1131
     724, 898,899,920,919, 1111,1112,1133,1132
     725, 899,900,921,920, 1112,1113,1134,1133
     726, 900,901,922,921, 1113,1114,1135,1134
     727, 901,902,923,922, 1114,1115,1136,1135
     728, 902,903,924,923, 1115,1116,1137,1136
     729, 903,904,925,924, 1116,1117,1138,1137
     730, 904,905,926,925, 1117,1118,1139,1138
     731, 905,906,927,926, 1118,1119,1140,1139
     732, 906,907,928,927, 1119,1120,1141,1140
     733, 907,908,929,928, 1120,1121,1142,1141
     734, 908,909,930,929, 1121,1122,1143,1142
     735, 909,910,931,930, 1122,1123,1144,1143
     736, 910,911,932,931, 1123,1124,1145,1144
     737, 911,912,933,932, 1124,1125,1146,1145
     738, 912,913,934,933, 1125,1126,1147,1146
     739, 913,914,935,934, 1126,1127,1148,1147
     740, 914,915,936,935, 1127,1128,1149,1148
     741, 916,917,938,937, 1129,1130,1151,1150
     742, 917,918,939,938, 1130,1131,1152,1151
     743, 918,919,940,939, 1131,1132,1153,1152
     744, 919,920,941,940, 1132,1133,1154,1153
     745, 920,921,942,941, 1133,1134,1155,1154
     746, 921,922,943,942, 1134,1135,1156,1155
     747, 922,923,944,943, 1135,1136,1157,1156
     748, 923,924,945,944, 1136,1137,1158,1157
     749, 924,925,946,945, 1137,1138,1159,1158
     750, 925,926,947,946, 1138,1139,1160,1159
     751, 926,927,948,947, 1139,1140,1161,1160
     752, 927,928,949,948, 1140,1141,1162,1161
     753, 928,929,950,949, 1141,1142,1163,1162
     754, 929,930,951,950, 1142,1143,1164,1163
     755, 930,931,952,951, 1143,1144,1165,1164
     756, 931,932,953,952, 1144,1145,1166,1165
     757, 932,933,954,953, 1145,1146,1167,1166
     758, 933,934,955,954, 1146,1147,1168,1167
     759, 934,935,956,955, 1147,1148,1169,1168
     760, 935,936,957,956, 1148,1149,1170,1169
     761, 937,938,959,958, 1150,1151,1172,1171
     762, 938,939,960,959, 1151,1152,1173,1172
     763, 939,940,961,960, 1152,1153,1174,1173
     764, 940,941,962,961, 1153,1154,1175,1174
     765, 944,945,964,963, 1157,1158,1177,1176
     766, 945,946,965,964, 1158,1159,1178,1177
     767, 946,947,966,965, 1159,1160,1179,1178
     768, 947,948,967,966, 1160,1161,1180,1179
     769, 948,949,968,967, 1161,1162,1181,1180
     770, 949,950,969,968, 1162,1163,1182,1181
     771, 950,951,970,969, 1163,1164,1183,1182
     772, 951,952,971,970, 1164,1165,1184,1183
     773, 952,953,972,971, 1165,1166,1185,1184
     774, 953,954,973,972, 1166,1167,1186,1185
     775, 954,955,974,973, 1167,1168,1187,1186
     776, 955,956,975,974, 1168,1169,1188,1187
     777, 956,957,976,975, 1169,1170,1189,1188
     778, 958,959,978,977, 1171,1172,1191,1190
     779, 959,960,979,978, 1172,1173,1192,1191
     780, 960,961,980,979, 1173,1174,1193,1192
     781, 961,962,981,980, 1174,1175,1194,1193
     782, 977,978,983,982, 1190,1191,1196,1195
     783, 978,979,984,983, 1191,1192,1197,1196
     784, 979,980,985,984, 1192,1193,1198,1197
     785, 980,981,986,985, 1193,1194,1199,1198
     786, 982,983,989,988, 1195,1196,1202,1201
     787, 983,984,990,989, 1196,1197,1203,1202
     788, 984,985,991,990, 1197,1198,1204,1203
     789, 985,986,992,991, 1198,1199,1205,1204
     790, 986,987,993,992, 1199,1200,1206,1205
     791, 988,989,995,994, 1201,1202,1208,1207
     792, 989,990,996,995, 1202,1203,1209,1208
     793, 990,991,997,996, 1203,1204,1210,1209
     794, 991,992,998,997, 1204,1205,1211,1210
     795, 992,993,999,998, 1205,1206,1212,1211
     796, 994,995,1001,1000, 1207,1208,1214,1213
     797, 995,996,1002,1001, 1208,1209,1215,1214
     798, 996,997,1003,1002, 1209,1210,1216,1215
     799, 997,998,1004,1003, 1210,1211,1217,1216
     800, 998,999,1005,1004, 1211,1212,1218,1217
     801, 1000,1001,1007,1006, 1213,1214,1220,1219
     802, 1001,1002,1008,1007, 1214,1215,1221,1220
     803, 1002,1003,1009,1008, 1215,1216,1222,1221
     804, 1003,1004,1010,1009, 1216,1217,1223,1222
     805, 1004,1005,1011,1010, 1217,1218,1224,1223
     806, 1006,1007,1013,1012, 1219,1220,1226,1225
     807, 1007,1008,1014,1013, 1220,1221,1227,1226
     808, 1008,1009,1015,1014, 1221,1222,1228,1227
     809, 1009,1010,1016,1015, 1222,1223,1229,1228
     810, 1010,1011,1017,1016, 1223,1224,1230,1229
     811, 1012,1013,1019,1018, 1225,1226,1232,1231
     812, 1013,1014,1020,1019, 1226,1227,1233,1232
     813, 1014,1015,1021,1020, 1227,1228,1234,1233
     814, 1015,1016,1022,1021, 1228,1229,1235,1234
     815, 1016,1017,1023,1022, 1229,1230,1236,1235
     816, 1018,1019,1025,1024, 1231,1232,1238,1237
     817, 1019,1020,1026,1025, 1232,1233,1239,1238
     818, 1020,1021,1027,1026, 1233,1234,1240,1239
     819, 1021,1022,1028,1027, 1234,1235,1241,1240
     820, 1022,1023,1029,1028, 1235,1236,1242,1241
     821, 1024,1025,1031,1030, 1237,1238,1244,1243
     822, 1025,1026,1032,1031, 1238,1239,1245,1244
     823, 1026,1027,1033,1032, 1239,1240,1246,1245
     824, 1027,1028,1034,1033, 1240,1241,1247,1246
     825, 1028,1029,1035,1034, 1241,1242,1248,1247
     826, 1030,1031,1037,1036, 1243,1244,1250,1249
     827, 1031,1032,1038,1037, 1244,1245,1251,1250
     828, 1032,1033,1039,1038, 1245,1246,1252,1251
     829, 1033,1034,1040,1039, 1246,1247,1253,1252
     830, 1034,1035,1041,1040, 1247,1248,1254,1253
     831, 1036,1037,1043,1042, 1249,1250,1256,1255
     832, 1037,1038,1044,1043, 1250,1251,1257,1256
     833, 1038,1039,1045,1044, 1251,1252,1258,1257
     834, 1039,1040,1046,1045, 1252,1253,1259,1258
     835, 1040,1041,1047,1046, 1253,1254,1260,1259
     836, 1042,1043,1049,1048, 1255,1256,1262,1261
     837, 1043,1044,1050,1049, 1256,1257,1263,1262
     838, 1044,1045,1051,1050, 1257,1258,1264,1263
     839, 1045,1046,1052,1051, 1258,1259,1265,1264
     840, 1046,1047,1053,1052, 1259,1260,1266,1265
     841, 1048,1049,1055,1054, 1261,1262,1268,1267
     842, 1049,1050,1056,1055, 1262,1263,1269,1268
     843, 1050,1051,1057,1056, 1263,1264,1270,1269
     844, 1051,1052,1058,1057, 1264,1265,1271,1270
     845, 1052,1053,1059,1058, 1265,1266,1272,1271
     846, 1054,1055,1061,1060, 1267,1268,1274,1273
     847, 1055,1056,1062,1061, 1268,1269,1275,1274
     848, 1056,1057,1063,1062, 1269,1270,1276,1275
     849, 1057,1058,1064,1063, 1270,1271,1277,1276
     850, 1058,1059,1065,1064, 1271,1272,1278,1277

*NSET, NSET=FIXED
  208, 209, 210, 211, 212, 213, 421, 422
  423, 424, 425, 426, 634, 635, 636, 637
  638, 639, 847, 848, 849, 850, 851, 852
  1060, 1061, 1062, 1063, 1064, 1065, 1273, 1274
  1275, 1276, 1277, 1278

*NSET, NSET=LOAD
  21, 42, 63, 84, 105, 124, 234, 255
  276, 297, 318, 337, 447, 468, 489, 510
  531, 550, 660, 681, 702, 723, 744, 763
  873, 894, 915, 936, 957, 976, 1086, 1107
  1128, 1149, 1170, 1189

*MATERIAL, NAME=METAL
*ELASTIC
210000., 0.3
*DENSITY
7.85e-9,

*SOLID SECTION, ELSET=EALL, MATERIAL=METAL

*STEP
*STATIC

*BOUNDARY
  208, 1, 3, 0.0
  209, 1, 3, 0.0
  210, 1, 3, 0.0
  211, 1, 3, 0.0
  212, 1, 3, 0.0
  213, 1, 3, 0.0
  421, 1, 3, 0.0
  422, 1, 3, 0.0
  423, 1, 3, 0.0
  424, 1, 3, 0.0
  425, 1, 3, 0.0
  426, 1, 3, 0.0
  634, 1, 3, 0.0
  635, 1, 3, 0.0
  636, 1, 3, 0.0
  637, 1, 3, 0.0
  638, 1, 3, 0.0
  639, 1, 3, 0.0
  847, 1, 3, 0.0
  848, 1, 3, 0.0
  849, 1, 3, 0.0
  850, 1, 3, 0.0
  851, 1, 3, 0.0
  852, 1, 3, 0.0
  1060, 1, 3, 0.0
  1061, 1, 3, 0.0
  1062, 1, 3, 0.0
  1063, 1, 3, 0.0
  1064, 1, 3, 0.0
  1065, 1, 3, 0.0
  1273, 1, 3, 0.0
  1274, 1, 3, 0.0
  1275, 1, 3, 0.0
  1276, 1, 3, 0.0
  1277, 1, 3, 0.0
  1278, 1, 3, 0.0

** 500 N total downward (-Y, DOF 2) over 36 nodes = -13.8889 N/node
*CLOAD
  21, 2, -13.888889
  42, 2, -13.888889
  63, 2, -13.888889
  84, 2, -13.888889
  105, 2, -13.888889
  124, 2, -13.888889
  234, 2, -13.888889
  255, 2, -13.888889
  276, 2, -13.888889
  297, 2, -13.888889
  318, 2, -13.888889
  337, 2, -13.888889
  447, 2, -13.888889
  468, 2, -13.888889
  489, 2, -13.888889
  510, 2, -13.888889
  531, 2, -13.888889
  550, 2, -13.888889
  660, 2, -13.888889
  681, 2, -13.888889
  702, 2, -13.888889
  723, 2, -13.888889
  744, 2, -13.888889
  763, 2, -13.888889
  873, 2, -13.888889
  894, 2, -13.888889
  915, 2, -13.888889
  936, 2, -13.888889
  957, 2, -13.888889
  976, 2, -13.888889
  1086, 2, -13.888889
  1107, 2, -13.888889
  1128, 2, -13.888889
  1149, 2, -13.888889
  1170, 2, -13.888889
  1189, 2, -13.888889

*NODE PRINT, NSET=NALL
U
*EL PRINT, ELSET=EALL
S
*NODE FILE, NSET=NALL
U
*EL FILE, ELSET=EALL
S

*END STEP