** ============================================================
** Plate with Central Hole — CalculiX CCX input file
** ============================================================
** Geometry  : 100x100x5mm plate, central hole r=10mm
** Elements  : C3D8 hex, graded mesh 2mm near hole / 5mm far
**             3261 nodes, 2002 elements
** Units     : mm, N, MPa
**
** Boundary conditions:
**   Left face  (x=0):   fixed X (DOF 1) — zero displacement
**   Bottom face(y=0):   fixed Y (DOF 2) — symmetry plane
**   Front face (z=0):   fixed Z (DOF 3) — symmetry plane
**   Right face (x=100): 5000 N tension in X direction
**
** Analytical reference (Kirsch 1898, Peterson finite correction):
**   Nominal stress sigma_nom = F/(H*T) = 10 MPa
**   Kt_infinite = 3.00  (classical hole-in-plate result)
**   d/W = 0.20  Kt_finite ≈ 2.85  (Peterson 1974)
**   Peak stress at hole edge (theta=90): ~28.5 MPa
**   X-displacement right edge: ~0.005mm (steel)
**
** VALIDATION: sigma_nom=10.0 kt=2.85 sigma_peak=28.5
** VALIDATION: tip_disp=0.0050
** ============================================================

*NODE, NSET=NALL
       1,       0.0000,       0.0000,       0.0000
       2,       0.0000,       0.0000,       2.5000
       3,       0.0000,       0.0000,       5.0000
       4,       0.0000,       5.0000,       0.0000
       5,       0.0000,       5.0000,       2.5000
       6,       0.0000,       5.0000,       5.0000
       7,       0.0000,      10.0000,       0.0000
       8,       0.0000,      10.0000,       2.5000
       9,       0.0000,      10.0000,       5.0000
      10,       0.0000,      15.0000,       0.0000
      11,       0.0000,      15.0000,       2.5000
      12,       0.0000,      15.0000,       5.0000
      13,       0.0000,      20.0000,       0.0000
      14,       0.0000,      20.0000,       2.5000
      15,       0.0000,      20.0000,       5.0000
      16,       0.0000,      25.0000,       0.0000
      17,       0.0000,      25.0000,       2.5000
      18,       0.0000,      25.0000,       5.0000
      19,       0.0000,      30.0000,       0.0000
      20,       0.0000,      30.0000,       2.5000
      21,       0.0000,      30.0000,       5.0000
      22,       0.0000,      32.0000,       0.0000
      23,       0.0000,      32.0000,       2.5000
      24,       0.0000,      32.0000,       5.0000
      25,       0.0000,      34.0000,       0.0000
      26,       0.0000,      34.0000,       2.5000
      27,       0.0000,      34.0000,       5.0000
      28,       0.0000,      36.0000,       0.0000
      29,       0.0000,      36.0000,       2.5000
      30,       0.0000,      36.0000,       5.0000
      31,       0.0000,      38.0000,       0.0000
      32,       0.0000,      38.0000,       2.5000
      33,       0.0000,      38.0000,       5.0000
      34,       0.0000,      40.0000,       0.0000
      35,       0.0000,      40.0000,       2.5000
      36,       0.0000,      40.0000,       5.0000
      37,       0.0000,      42.0000,       0.0000
      38,       0.0000,      42.0000,       2.5000
      39,       0.0000,      42.0000,       5.0000
      40,       0.0000,      44.0000,       0.0000
      41,       0.0000,      44.0000,       2.5000
      42,       0.0000,      44.0000,       5.0000
      43,       0.0000,      46.0000,       0.0000
      44,       0.0000,      46.0000,       2.5000
      45,       0.0000,      46.0000,       5.0000
      46,       0.0000,      48.0000,       0.0000
      47,       0.0000,      48.0000,       2.5000
      48,       0.0000,      48.0000,       5.0000
      49,       0.0000,      50.0000,       0.0000
      50,       0.0000,      50.0000,       2.5000
      51,       0.0000,      50.0000,       5.0000
      52,       0.0000,      52.0000,       0.0000
      53,       0.0000,      52.0000,       2.5000
      54,       0.0000,      52.0000,       5.0000
      55,       0.0000,      54.0000,       0.0000
      56,       0.0000,      54.0000,       2.5000
      57,       0.0000,      54.0000,       5.0000
      58,       0.0000,      56.0000,       0.0000
      59,       0.0000,      56.0000,       2.5000
      60,       0.0000,      56.0000,       5.0000
      61,       0.0000,      58.0000,       0.0000
      62,       0.0000,      58.0000,       2.5000
      63,       0.0000,      58.0000,       5.0000
      64,       0.0000,      60.0000,       0.0000
      65,       0.0000,      60.0000,       2.5000
      66,       0.0000,      60.0000,       5.0000
      67,       0.0000,      62.0000,       0.0000
      68,       0.0000,      62.0000,       2.5000
      69,       0.0000,      62.0000,       5.0000
      70,       0.0000,      64.0000,       0.0000
      71,       0.0000,      64.0000,       2.5000
      72,       0.0000,      64.0000,       5.0000
      73,       0.0000,      66.0000,       0.0000
      74,       0.0000,      66.0000,       2.5000
      75,       0.0000,      66.0000,       5.0000
      76,       0.0000,      68.0000,       0.0000
      77,       0.0000,      68.0000,       2.5000
      78,       0.0000,      68.0000,       5.0000
      79,       0.0000,      70.0000,       0.0000
      80,       0.0000,      70.0000,       2.5000
      81,       0.0000,      70.0000,       5.0000
      82,       0.0000,      72.0000,       0.0000
      83,       0.0000,      72.0000,       2.5000
      84,       0.0000,      72.0000,       5.0000
      85,       0.0000,      74.0000,       0.0000
      86,       0.0000,      74.0000,       2.5000
      87,       0.0000,      74.0000,       5.0000
      88,       0.0000,      76.0000,       0.0000
      89,       0.0000,      76.0000,       2.5000
      90,       0.0000,      76.0000,       5.0000
      91,       0.0000,      81.0000,       0.0000
      92,       0.0000,      81.0000,       2.5000
      93,       0.0000,      81.0000,       5.0000
      94,       0.0000,      86.0000,       0.0000
      95,       0.0000,      86.0000,       2.5000
      96,       0.0000,      86.0000,       5.0000
      97,       0.0000,      91.0000,       0.0000
      98,       0.0000,      91.0000,       2.5000
      99,       0.0000,      91.0000,       5.0000
     100,       0.0000,      96.0000,       0.0000
     101,       0.0000,      96.0000,       2.5000
     102,       0.0000,      96.0000,       5.0000
     103,       5.0000,       0.0000,       0.0000
     104,       5.0000,       0.0000,       2.5000
     105,       5.0000,       0.0000,       5.0000
     106,       5.0000,       5.0000,       0.0000
     107,       5.0000,       5.0000,       2.5000
     108,       5.0000,       5.0000,       5.0000
     109,       5.0000,      10.0000,       0.0000
     110,       5.0000,      10.0000,       2.5000
     111,       5.0000,      10.0000,       5.0000
     112,       5.0000,      15.0000,       0.0000
     113,       5.0000,      15.0000,       2.5000
     114,       5.0000,      15.0000,       5.0000
     115,       5.0000,      20.0000,       0.0000
     116,       5.0000,      20.0000,       2.5000
     117,       5.0000,      20.0000,       5.0000
     118,       5.0000,      25.0000,       0.0000
     119,       5.0000,      25.0000,       2.5000
     120,       5.0000,      25.0000,       5.0000
     121,       5.0000,      30.0000,       0.0000
     122,       5.0000,      30.0000,       2.5000
     123,       5.0000,      30.0000,       5.0000
     124,       5.0000,      32.0000,       0.0000
     125,       5.0000,      32.0000,       2.5000
     126,       5.0000,      32.0000,       5.0000
     127,       5.0000,      34.0000,       0.0000
     128,       5.0000,      34.0000,       2.5000
     129,       5.0000,      34.0000,       5.0000
     130,       5.0000,      36.0000,       0.0000
     131,       5.0000,      36.0000,       2.5000
     132,       5.0000,      36.0000,       5.0000
     133,       5.0000,      38.0000,       0.0000
     134,       5.0000,      38.0000,       2.5000
     135,       5.0000,      38.0000,       5.0000
     136,       5.0000,      40.0000,       0.0000
     137,       5.0000,      40.0000,       2.5000
     138,       5.0000,      40.0000,       5.0000
     139,       5.0000,      42.0000,       0.0000
     140,       5.0000,      42.0000,       2.5000
     141,       5.0000,      42.0000,       5.0000
     142,       5.0000,      44.0000,       0.0000
     143,       5.0000,      44.0000,       2.5000
     144,       5.0000,      44.0000,       5.0000
     145,       5.0000,      46.0000,       0.0000
     146,       5.0000,      46.0000,       2.5000
     147,       5.0000,      46.0000,       5.0000
     148,       5.0000,      48.0000,       0.0000
     149,       5.0000,      48.0000,       2.5000
     150,       5.0000,      48.0000,       5.0000
     151,       5.0000,      50.0000,       0.0000
     152,       5.0000,      50.0000,       2.5000
     153,       5.0000,      50.0000,       5.0000
     154,       5.0000,      52.0000,       0.0000
     155,       5.0000,      52.0000,       2.5000
     156,       5.0000,      52.0000,       5.0000
     157,       5.0000,      54.0000,       0.0000
     158,       5.0000,      54.0000,       2.5000
     159,       5.0000,      54.0000,       5.0000
     160,       5.0000,      56.0000,       0.0000
     161,       5.0000,      56.0000,       2.5000
     162,       5.0000,      56.0000,       5.0000
     163,       5.0000,      58.0000,       0.0000
     164,       5.0000,      58.0000,       2.5000
     165,       5.0000,      58.0000,       5.0000
     166,       5.0000,      60.0000,       0.0000
     167,       5.0000,      60.0000,       2.5000
     168,       5.0000,      60.0000,       5.0000
     169,       5.0000,      62.0000,       0.0000
     170,       5.0000,      62.0000,       2.5000
     171,       5.0000,      62.0000,       5.0000
     172,       5.0000,      64.0000,       0.0000
     173,       5.0000,      64.0000,       2.5000
     174,       5.0000,      64.0000,       5.0000
     175,       5.0000,      66.0000,       0.0000
     176,       5.0000,      66.0000,       2.5000
     177,       5.0000,      66.0000,       5.0000
     178,       5.0000,      68.0000,       0.0000
     179,       5.0000,      68.0000,       2.5000
     180,       5.0000,      68.0000,       5.0000
     181,       5.0000,      70.0000,       0.0000
     182,       5.0000,      70.0000,       2.5000
     183,       5.0000,      70.0000,       5.0000
     184,       5.0000,      72.0000,       0.0000
     185,       5.0000,      72.0000,       2.5000
     186,       5.0000,      72.0000,       5.0000
     187,       5.0000,      74.0000,       0.0000
     188,       5.0000,      74.0000,       2.5000
     189,       5.0000,      74.0000,       5.0000
     190,       5.0000,      76.0000,       0.0000
     191,       5.0000,      76.0000,       2.5000
     192,       5.0000,      76.0000,       5.0000
     193,       5.0000,      81.0000,       0.0000
     194,       5.0000,      81.0000,       2.5000
     195,       5.0000,      81.0000,       5.0000
     196,       5.0000,      86.0000,       0.0000
     197,       5.0000,      86.0000,       2.5000
     198,       5.0000,      86.0000,       5.0000
     199,       5.0000,      91.0000,       0.0000
     200,       5.0000,      91.0000,       2.5000
     201,       5.0000,      91.0000,       5.0000
     202,       5.0000,      96.0000,       0.0000
     203,       5.0000,      96.0000,       2.5000
     204,       5.0000,      96.0000,       5.0000
     205,      10.0000,       0.0000,       0.0000
     206,      10.0000,       0.0000,       2.5000
     207,      10.0000,       0.0000,       5.0000
     208,      10.0000,       5.0000,       0.0000
     209,      10.0000,       5.0000,       2.5000
     210,      10.0000,       5.0000,       5.0000
     211,      10.0000,      10.0000,       0.0000
     212,      10.0000,      10.0000,       2.5000
     213,      10.0000,      10.0000,       5.0000
     214,      10.0000,      15.0000,       0.0000
     215,      10.0000,      15.0000,       2.5000
     216,      10.0000,      15.0000,       5.0000
     217,      10.0000,      20.0000,       0.0000
     218,      10.0000,      20.0000,       2.5000
     219,      10.0000,      20.0000,       5.0000
     220,      10.0000,      25.0000,       0.0000
     221,      10.0000,      25.0000,       2.5000
     222,      10.0000,      25.0000,       5.0000
     223,      10.0000,      30.0000,       0.0000
     224,      10.0000,      30.0000,       2.5000
     225,      10.0000,      30.0000,       5.0000
     226,      10.0000,      32.0000,       0.0000
     227,      10.0000,      32.0000,       2.5000
     228,      10.0000,      32.0000,       5.0000
     229,      10.0000,      34.0000,       0.0000
     230,      10.0000,      34.0000,       2.5000
     231,      10.0000,      34.0000,       5.0000
     232,      10.0000,      36.0000,       0.0000
     233,      10.0000,      36.0000,       2.5000
     234,      10.0000,      36.0000,       5.0000
     235,      10.0000,      38.0000,       0.0000
     236,      10.0000,      38.0000,       2.5000
     237,      10.0000,      38.0000,       5.0000
     238,      10.0000,      40.0000,       0.0000
     239,      10.0000,      40.0000,       2.5000
     240,      10.0000,      40.0000,       5.0000
     241,      10.0000,      42.0000,       0.0000
     242,      10.0000,      42.0000,       2.5000
     243,      10.0000,      42.0000,       5.0000
     244,      10.0000,      44.0000,       0.0000
     245,      10.0000,      44.0000,       2.5000
     246,      10.0000,      44.0000,       5.0000
     247,      10.0000,      46.0000,       0.0000
     248,      10.0000,      46.0000,       2.5000
     249,      10.0000,      46.0000,       5.0000
     250,      10.0000,      48.0000,       0.0000
     251,      10.0000,      48.0000,       2.5000
     252,      10.0000,      48.0000,       5.0000
     253,      10.0000,      50.0000,       0.0000
     254,      10.0000,      50.0000,       2.5000
     255,      10.0000,      50.0000,       5.0000
     256,      10.0000,      52.0000,       0.0000
     257,      10.0000,      52.0000,       2.5000
     258,      10.0000,      52.0000,       5.0000
     259,      10.0000,      54.0000,       0.0000
     260,      10.0000,      54.0000,       2.5000
     261,      10.0000,      54.0000,       5.0000
     262,      10.0000,      56.0000,       0.0000
     263,      10.0000,      56.0000,       2.5000
     264,      10.0000,      56.0000,       5.0000
     265,      10.0000,      58.0000,       0.0000
     266,      10.0000,      58.0000,       2.5000
     267,      10.0000,      58.0000,       5.0000
     268,      10.0000,      60.0000,       0.0000
     269,      10.0000,      60.0000,       2.5000
     270,      10.0000,      60.0000,       5.0000
     271,      10.0000,      62.0000,       0.0000
     272,      10.0000,      62.0000,       2.5000
     273,      10.0000,      62.0000,       5.0000
     274,      10.0000,      64.0000,       0.0000
     275,      10.0000,      64.0000,       2.5000
     276,      10.0000,      64.0000,       5.0000
     277,      10.0000,      66.0000,       0.0000
     278,      10.0000,      66.0000,       2.5000
     279,      10.0000,      66.0000,       5.0000
     280,      10.0000,      68.0000,       0.0000
     281,      10.0000,      68.0000,       2.5000
     282,      10.0000,      68.0000,       5.0000
     283,      10.0000,      70.0000,       0.0000
     284,      10.0000,      70.0000,       2.5000
     285,      10.0000,      70.0000,       5.0000
     286,      10.0000,      72.0000,       0.0000
     287,      10.0000,      72.0000,       2.5000
     288,      10.0000,      72.0000,       5.0000
     289,      10.0000,      74.0000,       0.0000
     290,      10.0000,      74.0000,       2.5000
     291,      10.0000,      74.0000,       5.0000
     292,      10.0000,      76.0000,       0.0000
     293,      10.0000,      76.0000,       2.5000
     294,      10.0000,      76.0000,       5.0000
     295,      10.0000,      81.0000,       0.0000
     296,      10.0000,      81.0000,       2.5000
     297,      10.0000,      81.0000,       5.0000
     298,      10.0000,      86.0000,       0.0000
     299,      10.0000,      86.0000,       2.5000
     300,      10.0000,      86.0000,       5.0000
     301,      10.0000,      91.0000,       0.0000
     302,      10.0000,      91.0000,       2.5000
     303,      10.0000,      91.0000,       5.0000
     304,      10.0000,      96.0000,       0.0000
     305,      10.0000,      96.0000,       2.5000
     306,      10.0000,      96.0000,       5.0000
     307,      15.0000,       0.0000,       0.0000
     308,      15.0000,       0.0000,       2.5000
     309,      15.0000,       0.0000,       5.0000
     310,      15.0000,       5.0000,       0.0000
     311,      15.0000,       5.0000,       2.5000
     312,      15.0000,       5.0000,       5.0000
     313,      15.0000,      10.0000,       0.0000
     314,      15.0000,      10.0000,       2.5000
     315,      15.0000,      10.0000,       5.0000
     316,      15.0000,      15.0000,       0.0000
     317,      15.0000,      15.0000,       2.5000
     318,      15.0000,      15.0000,       5.0000
     319,      15.0000,      20.0000,       0.0000
     320,      15.0000,      20.0000,       2.5000
     321,      15.0000,      20.0000,       5.0000
     322,      15.0000,      25.0000,       0.0000
     323,      15.0000,      25.0000,       2.5000
     324,      15.0000,      25.0000,       5.0000
     325,      15.0000,      30.0000,       0.0000
     326,      15.0000,      30.0000,       2.5000
     327,      15.0000,      30.0000,       5.0000
     328,      15.0000,      32.0000,       0.0000
     329,      15.0000,      32.0000,       2.5000
     330,      15.0000,      32.0000,       5.0000
     331,      15.0000,      34.0000,       0.0000
     332,      15.0000,      34.0000,       2.5000
     333,      15.0000,      34.0000,       5.0000
     334,      15.0000,      36.0000,       0.0000
     335,      15.0000,      36.0000,       2.5000
     336,      15.0000,      36.0000,       5.0000
     337,      15.0000,      38.0000,       0.0000
     338,      15.0000,      38.0000,       2.5000
     339,      15.0000,      38.0000,       5.0000
     340,      15.0000,      40.0000,       0.0000
     341,      15.0000,      40.0000,       2.5000
     342,      15.0000,      40.0000,       5.0000
     343,      15.0000,      42.0000,       0.0000
     344,      15.0000,      42.0000,       2.5000
     345,      15.0000,      42.0000,       5.0000
     346,      15.0000,      44.0000,       0.0000
     347,      15.0000,      44.0000,       2.5000
     348,      15.0000,      44.0000,       5.0000
     349,      15.0000,      46.0000,       0.0000
     350,      15.0000,      46.0000,       2.5000
     351,      15.0000,      46.0000,       5.0000
     352,      15.0000,      48.0000,       0.0000
     353,      15.0000,      48.0000,       2.5000
     354,      15.0000,      48.0000,       5.0000
     355,      15.0000,      50.0000,       0.0000
     356,      15.0000,      50.0000,       2.5000
     357,      15.0000,      50.0000,       5.0000
     358,      15.0000,      52.0000,       0.0000
     359,      15.0000,      52.0000,       2.5000
     360,      15.0000,      52.0000,       5.0000
     361,      15.0000,      54.0000,       0.0000
     362,      15.0000,      54.0000,       2.5000
     363,      15.0000,      54.0000,       5.0000
     364,      15.0000,      56.0000,       0.0000
     365,      15.0000,      56.0000,       2.5000
     366,      15.0000,      56.0000,       5.0000
     367,      15.0000,      58.0000,       0.0000
     368,      15.0000,      58.0000,       2.5000
     369,      15.0000,      58.0000,       5.0000
     370,      15.0000,      60.0000,       0.0000
     371,      15.0000,      60.0000,       2.5000
     372,      15.0000,      60.0000,       5.0000
     373,      15.0000,      62.0000,       0.0000
     374,      15.0000,      62.0000,       2.5000
     375,      15.0000,      62.0000,       5.0000
     376,      15.0000,      64.0000,       0.0000
     377,      15.0000,      64.0000,       2.5000
     378,      15.0000,      64.0000,       5.0000
     379,      15.0000,      66.0000,       0.0000
     380,      15.0000,      66.0000,       2.5000
     381,      15.0000,      66.0000,       5.0000
     382,      15.0000,      68.0000,       0.0000
     383,      15.0000,      68.0000,       2.5000
     384,      15.0000,      68.0000,       5.0000
     385,      15.0000,      70.0000,       0.0000
     386,      15.0000,      70.0000,       2.5000
     387,      15.0000,      70.0000,       5.0000
     388,      15.0000,      72.0000,       0.0000
     389,      15.0000,      72.0000,       2.5000
     390,      15.0000,      72.0000,       5.0000
     391,      15.0000,      74.0000,       0.0000
     392,      15.0000,      74.0000,       2.5000
     393,      15.0000,      74.0000,       5.0000
     394,      15.0000,      76.0000,       0.0000
     395,      15.0000,      76.0000,       2.5000
     396,      15.0000,      76.0000,       5.0000
     397,      15.0000,      81.0000,       0.0000
     398,      15.0000,      81.0000,       2.5000
     399,      15.0000,      81.0000,       5.0000
     400,      15.0000,      86.0000,       0.0000
     401,      15.0000,      86.0000,       2.5000
     402,      15.0000,      86.0000,       5.0000
     403,      15.0000,      91.0000,       0.0000
     404,      15.0000,      91.0000,       2.5000
     405,      15.0000,      91.0000,       5.0000
     406,      15.0000,      96.0000,       0.0000
     407,      15.0000,      96.0000,       2.5000
     408,      15.0000,      96.0000,       5.0000
     409,      20.0000,       0.0000,       0.0000
     410,      20.0000,       0.0000,       2.5000
     411,      20.0000,       0.0000,       5.0000
     412,      20.0000,       5.0000,       0.0000
     413,      20.0000,       5.0000,       2.5000
     414,      20.0000,       5.0000,       5.0000
     415,      20.0000,      10.0000,       0.0000
     416,      20.0000,      10.0000,       2.5000
     417,      20.0000,      10.0000,       5.0000
     418,      20.0000,      15.0000,       0.0000
     419,      20.0000,      15.0000,       2.5000
     420,      20.0000,      15.0000,       5.0000
     421,      20.0000,      20.0000,       0.0000
     422,      20.0000,      20.0000,       2.5000
     423,      20.0000,      20.0000,       5.0000
     424,      20.0000,      25.0000,       0.0000
     425,      20.0000,      25.0000,       2.5000
     426,      20.0000,      25.0000,       5.0000
     427,      20.0000,      30.0000,       0.0000
     428,      20.0000,      30.0000,       2.5000
     429,      20.0000,      30.0000,       5.0000
     430,      20.0000,      32.0000,       0.0000
     431,      20.0000,      32.0000,       2.5000
     432,      20.0000,      32.0000,       5.0000
     433,      20.0000,      34.0000,       0.0000
     434,      20.0000,      34.0000,       2.5000
     435,      20.0000,      34.0000,       5.0000
     436,      20.0000,      36.0000,       0.0000
     437,      20.0000,      36.0000,       2.5000
     438,      20.0000,      36.0000,       5.0000
     439,      20.0000,      38.0000,       0.0000
     440,      20.0000,      38.0000,       2.5000
     441,      20.0000,      38.0000,       5.0000
     442,      20.0000,      40.0000,       0.0000
     443,      20.0000,      40.0000,       2.5000
     444,      20.0000,      40.0000,       5.0000
     445,      20.0000,      42.0000,       0.0000
     446,      20.0000,      42.0000,       2.5000
     447,      20.0000,      42.0000,       5.0000
     448,      20.0000,      44.0000,       0.0000
     449,      20.0000,      44.0000,       2.5000
     450,      20.0000,      44.0000,       5.0000
     451,      20.0000,      46.0000,       0.0000
     452,      20.0000,      46.0000,       2.5000
     453,      20.0000,      46.0000,       5.0000
     454,      20.0000,      48.0000,       0.0000
     455,      20.0000,      48.0000,       2.5000
     456,      20.0000,      48.0000,       5.0000
     457,      20.0000,      50.0000,       0.0000
     458,      20.0000,      50.0000,       2.5000
     459,      20.0000,      50.0000,       5.0000
     460,      20.0000,      52.0000,       0.0000
     461,      20.0000,      52.0000,       2.5000
     462,      20.0000,      52.0000,       5.0000
     463,      20.0000,      54.0000,       0.0000
     464,      20.0000,      54.0000,       2.5000
     465,      20.0000,      54.0000,       5.0000
     466,      20.0000,      56.0000,       0.0000
     467,      20.0000,      56.0000,       2.5000
     468,      20.0000,      56.0000,       5.0000
     469,      20.0000,      58.0000,       0.0000
     470,      20.0000,      58.0000,       2.5000
     471,      20.0000,      58.0000,       5.0000
     472,      20.0000,      60.0000,       0.0000
     473,      20.0000,      60.0000,       2.5000
     474,      20.0000,      60.0000,       5.0000
     475,      20.0000,      62.0000,       0.0000
     476,      20.0000,      62.0000,       2.5000
     477,      20.0000,      62.0000,       5.0000
     478,      20.0000,      64.0000,       0.0000
     479,      20.0000,      64.0000,       2.5000
     480,      20.0000,      64.0000,       5.0000
     481,      20.0000,      66.0000,       0.0000
     482,      20.0000,      66.0000,       2.5000
     483,      20.0000,      66.0000,       5.0000
     484,      20.0000,      68.0000,       0.0000
     485,      20.0000,      68.0000,       2.5000
     486,      20.0000,      68.0000,       5.0000
     487,      20.0000,      70.0000,       0.0000
     488,      20.0000,      70.0000,       2.5000
     489,      20.0000,      70.0000,       5.0000
     490,      20.0000,      72.0000,       0.0000
     491,      20.0000,      72.0000,       2.5000
     492,      20.0000,      72.0000,       5.0000
     493,      20.0000,      74.0000,       0.0000
     494,      20.0000,      74.0000,       2.5000
     495,      20.0000,      74.0000,       5.0000
     496,      20.0000,      76.0000,       0.0000
     497,      20.0000,      76.0000,       2.5000
     498,      20.0000,      76.0000,       5.0000
     499,      20.0000,      81.0000,       0.0000
     500,      20.0000,      81.0000,       2.5000
     501,      20.0000,      81.0000,       5.0000
     502,      20.0000,      86.0000,       0.0000
     503,      20.0000,      86.0000,       2.5000
     504,      20.0000,      86.0000,       5.0000
     505,      20.0000,      91.0000,       0.0000
     506,      20.0000,      91.0000,       2.5000
     507,      20.0000,      91.0000,       5.0000
     508,      20.0000,      96.0000,       0.0000
     509,      20.0000,      96.0000,       2.5000
     510,      20.0000,      96.0000,       5.0000
     511,      25.0000,       0.0000,       0.0000
     512,      25.0000,       0.0000,       2.5000
     513,      25.0000,       0.0000,       5.0000
     514,      25.0000,       5.0000,       0.0000
     515,      25.0000,       5.0000,       2.5000
     516,      25.0000,       5.0000,       5.0000
     517,      25.0000,      10.0000,       0.0000
     518,      25.0000,      10.0000,       2.5000
     519,      25.0000,      10.0000,       5.0000
     520,      25.0000,      15.0000,       0.0000
     521,      25.0000,      15.0000,       2.5000
     522,      25.0000,      15.0000,       5.0000
     523,      25.0000,      20.0000,       0.0000
     524,      25.0000,      20.0000,       2.5000
     525,      25.0000,      20.0000,       5.0000
     526,      25.0000,      25.0000,       0.0000
     527,      25.0000,      25.0000,       2.5000
     528,      25.0000,      25.0000,       5.0000
     529,      25.0000,      30.0000,       0.0000
     530,      25.0000,      30.0000,       2.5000
     531,      25.0000,      30.0000,       5.0000
     532,      25.0000,      32.0000,       0.0000
     533,      25.0000,      32.0000,       2.5000
     534,      25.0000,      32.0000,       5.0000
     535,      25.0000,      34.0000,       0.0000
     536,      25.0000,      34.0000,       2.5000
     537,      25.0000,      34.0000,       5.0000
     538,      25.0000,      36.0000,       0.0000
     539,      25.0000,      36.0000,       2.5000
     540,      25.0000,      36.0000,       5.0000
     541,      25.0000,      38.0000,       0.0000
     542,      25.0000,      38.0000,       2.5000
     543,      25.0000,      38.0000,       5.0000
     544,      25.0000,      40.0000,       0.0000
     545,      25.0000,      40.0000,       2.5000
     546,      25.0000,      40.0000,       5.0000
     547,      25.0000,      42.0000,       0.0000
     548,      25.0000,      42.0000,       2.5000
     549,      25.0000,      42.0000,       5.0000
     550,      25.0000,      44.0000,       0.0000
     551,      25.0000,      44.0000,       2.5000
     552,      25.0000,      44.0000,       5.0000
     553,      25.0000,      46.0000,       0.0000
     554,      25.0000,      46.0000,       2.5000
     555,      25.0000,      46.0000,       5.0000
     556,      25.0000,      48.0000,       0.0000
     557,      25.0000,      48.0000,       2.5000
     558,      25.0000,      48.0000,       5.0000
     559,      25.0000,      50.0000,       0.0000
     560,      25.0000,      50.0000,       2.5000
     561,      25.0000,      50.0000,       5.0000
     562,      25.0000,      52.0000,       0.0000
     563,      25.0000,      52.0000,       2.5000
     564,      25.0000,      52.0000,       5.0000
     565,      25.0000,      54.0000,       0.0000
     566,      25.0000,      54.0000,       2.5000
     567,      25.0000,      54.0000,       5.0000
     568,      25.0000,      56.0000,       0.0000
     569,      25.0000,      56.0000,       2.5000
     570,      25.0000,      56.0000,       5.0000
     571,      25.0000,      58.0000,       0.0000
     572,      25.0000,      58.0000,       2.5000
     573,      25.0000,      58.0000,       5.0000
     574,      25.0000,      60.0000,       0.0000
     575,      25.0000,      60.0000,       2.5000
     576,      25.0000,      60.0000,       5.0000
     577,      25.0000,      62.0000,       0.0000
     578,      25.0000,      62.0000,       2.5000
     579,      25.0000,      62.0000,       5.0000
     580,      25.0000,      64.0000,       0.0000
     581,      25.0000,      64.0000,       2.5000
     582,      25.0000,      64.0000,       5.0000
     583,      25.0000,      66.0000,       0.0000
     584,      25.0000,      66.0000,       2.5000
     585,      25.0000,      66.0000,       5.0000
     586,      25.0000,      68.0000,       0.0000
     587,      25.0000,      68.0000,       2.5000
     588,      25.0000,      68.0000,       5.0000
     589,      25.0000,      70.0000,       0.0000
     590,      25.0000,      70.0000,       2.5000
     591,      25.0000,      70.0000,       5.0000
     592,      25.0000,      72.0000,       0.0000
     593,      25.0000,      72.0000,       2.5000
     594,      25.0000,      72.0000,       5.0000
     595,      25.0000,      74.0000,       0.0000
     596,      25.0000,      74.0000,       2.5000
     597,      25.0000,      74.0000,       5.0000
     598,      25.0000,      76.0000,       0.0000
     599,      25.0000,      76.0000,       2.5000
     600,      25.0000,      76.0000,       5.0000
     601,      25.0000,      81.0000,       0.0000
     602,      25.0000,      81.0000,       2.5000
     603,      25.0000,      81.0000,       5.0000
     604,      25.0000,      86.0000,       0.0000
     605,      25.0000,      86.0000,       2.5000
     606,      25.0000,      86.0000,       5.0000
     607,      25.0000,      91.0000,       0.0000
     608,      25.0000,      91.0000,       2.5000
     609,      25.0000,      91.0000,       5.0000
     610,      25.0000,      96.0000,       0.0000
     611,      25.0000,      96.0000,       2.5000
     612,      25.0000,      96.0000,       5.0000
     613,      30.0000,       0.0000,       0.0000
     614,      30.0000,       0.0000,       2.5000
     615,      30.0000,       0.0000,       5.0000
     616,      30.0000,       5.0000,       0.0000
     617,      30.0000,       5.0000,       2.5000
     618,      30.0000,       5.0000,       5.0000
     619,      30.0000,      10.0000,       0.0000
     620,      30.0000,      10.0000,       2.5000
     621,      30.0000,      10.0000,       5.0000
     622,      30.0000,      15.0000,       0.0000
     623,      30.0000,      15.0000,       2.5000
     624,      30.0000,      15.0000,       5.0000
     625,      30.0000,      20.0000,       0.0000
     626,      30.0000,      20.0000,       2.5000
     627,      30.0000,      20.0000,       5.0000
     628,      30.0000,      25.0000,       0.0000
     629,      30.0000,      25.0000,       2.5000
     630,      30.0000,      25.0000,       5.0000
     631,      30.0000,      30.0000,       0.0000
     632,      30.0000,      30.0000,       2.5000
     633,      30.0000,      30.0000,       5.0000
     634,      30.0000,      32.0000,       0.0000
     635,      30.0000,      32.0000,       2.5000
     636,      30.0000,      32.0000,       5.0000
     637,      30.0000,      34.0000,       0.0000
     638,      30.0000,      34.0000,       2.5000
     639,      30.0000,      34.0000,       5.0000
     640,      30.0000,      36.0000,       0.0000
     641,      30.0000,      36.0000,       2.5000
     642,      30.0000,      36.0000,       5.0000
     643,      30.0000,      38.0000,       0.0000
     644,      30.0000,      38.0000,       2.5000
     645,      30.0000,      38.0000,       5.0000
     646,      30.0000,      40.0000,       0.0000
     647,      30.0000,      40.0000,       2.5000
     648,      30.0000,      40.0000,       5.0000
     649,      30.0000,      42.0000,       0.0000
     650,      30.0000,      42.0000,       2.5000
     651,      30.0000,      42.0000,       5.0000
     652,      30.0000,      44.0000,       0.0000
     653,      30.0000,      44.0000,       2.5000
     654,      30.0000,      44.0000,       5.0000
     655,      30.0000,      46.0000,       0.0000
     656,      30.0000,      46.0000,       2.5000
     657,      30.0000,      46.0000,       5.0000
     658,      30.0000,      48.0000,       0.0000
     659,      30.0000,      48.0000,       2.5000
     660,      30.0000,      48.0000,       5.0000
     661,      30.0000,      50.0000,       0.0000
     662,      30.0000,      50.0000,       2.5000
     663,      30.0000,      50.0000,       5.0000
     664,      30.0000,      52.0000,       0.0000
     665,      30.0000,      52.0000,       2.5000
     666,      30.0000,      52.0000,       5.0000
     667,      30.0000,      54.0000,       0.0000
     668,      30.0000,      54.0000,       2.5000
     669,      30.0000,      54.0000,       5.0000
     670,      30.0000,      56.0000,       0.0000
     671,      30.0000,      56.0000,       2.5000
     672,      30.0000,      56.0000,       5.0000
     673,      30.0000,      58.0000,       0.0000
     674,      30.0000,      58.0000,       2.5000
     675,      30.0000,      58.0000,       5.0000
     676,      30.0000,      60.0000,       0.0000
     677,      30.0000,      60.0000,       2.5000
     678,      30.0000,      60.0000,       5.0000
     679,      30.0000,      62.0000,       0.0000
     680,      30.0000,      62.0000,       2.5000
     681,      30.0000,      62.0000,       5.0000
     682,      30.0000,      64.0000,       0.0000
     683,      30.0000,      64.0000,       2.5000
     684,      30.0000,      64.0000,       5.0000
     685,      30.0000,      66.0000,       0.0000
     686,      30.0000,      66.0000,       2.5000
     687,      30.0000,      66.0000,       5.0000
     688,      30.0000,      68.0000,       0.0000
     689,      30.0000,      68.0000,       2.5000
     690,      30.0000,      68.0000,       5.0000
     691,      30.0000,      70.0000,       0.0000
     692,      30.0000,      70.0000,       2.5000
     693,      30.0000,      70.0000,       5.0000
     694,      30.0000,      72.0000,       0.0000
     695,      30.0000,      72.0000,       2.5000
     696,      30.0000,      72.0000,       5.0000
     697,      30.0000,      74.0000,       0.0000
     698,      30.0000,      74.0000,       2.5000
     699,      30.0000,      74.0000,       5.0000
     700,      30.0000,      76.0000,       0.0000
     701,      30.0000,      76.0000,       2.5000
     702,      30.0000,      76.0000,       5.0000
     703,      30.0000,      81.0000,       0.0000
     704,      30.0000,      81.0000,       2.5000
     705,      30.0000,      81.0000,       5.0000
     706,      30.0000,      86.0000,       0.0000
     707,      30.0000,      86.0000,       2.5000
     708,      30.0000,      86.0000,       5.0000
     709,      30.0000,      91.0000,       0.0000
     710,      30.0000,      91.0000,       2.5000
     711,      30.0000,      91.0000,       5.0000
     712,      30.0000,      96.0000,       0.0000
     713,      30.0000,      96.0000,       2.5000
     714,      30.0000,      96.0000,       5.0000
     715,      32.0000,       0.0000,       0.0000
     716,      32.0000,       0.0000,       2.5000
     717,      32.0000,       0.0000,       5.0000
     718,      32.0000,       5.0000,       0.0000
     719,      32.0000,       5.0000,       2.5000
     720,      32.0000,       5.0000,       5.0000
     721,      32.0000,      10.0000,       0.0000
     722,      32.0000,      10.0000,       2.5000
     723,      32.0000,      10.0000,       5.0000
     724,      32.0000,      15.0000,       0.0000
     725,      32.0000,      15.0000,       2.5000
     726,      32.0000,      15.0000,       5.0000
     727,      32.0000,      20.0000,       0.0000
     728,      32.0000,      20.0000,       2.5000
     729,      32.0000,      20.0000,       5.0000
     730,      32.0000,      25.0000,       0.0000
     731,      32.0000,      25.0000,       2.5000
     732,      32.0000,      25.0000,       5.0000
     733,      32.0000,      30.0000,       0.0000
     734,      32.0000,      30.0000,       2.5000
     735,      32.0000,      30.0000,       5.0000
     736,      32.0000,      32.0000,       0.0000
     737,      32.0000,      32.0000,       2.5000
     738,      32.0000,      32.0000,       5.0000
     739,      32.0000,      34.0000,       0.0000
     740,      32.0000,      34.0000,       2.5000
     741,      32.0000,      34.0000,       5.0000
     742,      32.0000,      36.0000,       0.0000
     743,      32.0000,      36.0000,       2.5000
     744,      32.0000,      36.0000,       5.0000
     745,      32.0000,      38.0000,       0.0000
     746,      32.0000,      38.0000,       2.5000
     747,      32.0000,      38.0000,       5.0000
     748,      32.0000,      40.0000,       0.0000
     749,      32.0000,      40.0000,       2.5000
     750,      32.0000,      40.0000,       5.0000
     751,      32.0000,      42.0000,       0.0000
     752,      32.0000,      42.0000,       2.5000
     753,      32.0000,      42.0000,       5.0000
     754,      32.0000,      44.0000,       0.0000
     755,      32.0000,      44.0000,       2.5000
     756,      32.0000,      44.0000,       5.0000
     757,      32.0000,      46.0000,       0.0000
     758,      32.0000,      46.0000,       2.5000
     759,      32.0000,      46.0000,       5.0000
     760,      32.0000,      48.0000,       0.0000
     761,      32.0000,      48.0000,       2.5000
     762,      32.0000,      48.0000,       5.0000
     763,      32.0000,      50.0000,       0.0000
     764,      32.0000,      50.0000,       2.5000
     765,      32.0000,      50.0000,       5.0000
     766,      32.0000,      52.0000,       0.0000
     767,      32.0000,      52.0000,       2.5000
     768,      32.0000,      52.0000,       5.0000
     769,      32.0000,      54.0000,       0.0000
     770,      32.0000,      54.0000,       2.5000
     771,      32.0000,      54.0000,       5.0000
     772,      32.0000,      56.0000,       0.0000
     773,      32.0000,      56.0000,       2.5000
     774,      32.0000,      56.0000,       5.0000
     775,      32.0000,      58.0000,       0.0000
     776,      32.0000,      58.0000,       2.5000
     777,      32.0000,      58.0000,       5.0000
     778,      32.0000,      60.0000,       0.0000
     779,      32.0000,      60.0000,       2.5000
     780,      32.0000,      60.0000,       5.0000
     781,      32.0000,      62.0000,       0.0000
     782,      32.0000,      62.0000,       2.5000
     783,      32.0000,      62.0000,       5.0000
     784,      32.0000,      64.0000,       0.0000
     785,      32.0000,      64.0000,       2.5000
     786,      32.0000,      64.0000,       5.0000
     787,      32.0000,      66.0000,       0.0000
     788,      32.0000,      66.0000,       2.5000
     789,      32.0000,      66.0000,       5.0000
     790,      32.0000,      68.0000,       0.0000
     791,      32.0000,      68.0000,       2.5000
     792,      32.0000,      68.0000,       5.0000
     793,      32.0000,      70.0000,       0.0000
     794,      32.0000,      70.0000,       2.5000
     795,      32.0000,      70.0000,       5.0000
     796,      32.0000,      72.0000,       0.0000
     797,      32.0000,      72.0000,       2.5000
     798,      32.0000,      72.0000,       5.0000
     799,      32.0000,      74.0000,       0.0000
     800,      32.0000,      74.0000,       2.5000
     801,      32.0000,      74.0000,       5.0000
     802,      32.0000,      76.0000,       0.0000
     803,      32.0000,      76.0000,       2.5000
     804,      32.0000,      76.0000,       5.0000
     805,      32.0000,      81.0000,       0.0000
     806,      32.0000,      81.0000,       2.5000
     807,      32.0000,      81.0000,       5.0000
     808,      32.0000,      86.0000,       0.0000
     809,      32.0000,      86.0000,       2.5000
     810,      32.0000,      86.0000,       5.0000
     811,      32.0000,      91.0000,       0.0000
     812,      32.0000,      91.0000,       2.5000
     813,      32.0000,      91.0000,       5.0000
     814,      32.0000,      96.0000,       0.0000
     815,      32.0000,      96.0000,       2.5000
     816,      32.0000,      96.0000,       5.0000
     817,      34.0000,       0.0000,       0.0000
     818,      34.0000,       0.0000,       2.5000
     819,      34.0000,       0.0000,       5.0000
     820,      34.0000,       5.0000,       0.0000
     821,      34.0000,       5.0000,       2.5000
     822,      34.0000,       5.0000,       5.0000
     823,      34.0000,      10.0000,       0.0000
     824,      34.0000,      10.0000,       2.5000
     825,      34.0000,      10.0000,       5.0000
     826,      34.0000,      15.0000,       0.0000
     827,      34.0000,      15.0000,       2.5000
     828,      34.0000,      15.0000,       5.0000
     829,      34.0000,      20.0000,       0.0000
     830,      34.0000,      20.0000,       2.5000
     831,      34.0000,      20.0000,       5.0000
     832,      34.0000,      25.0000,       0.0000
     833,      34.0000,      25.0000,       2.5000
     834,      34.0000,      25.0000,       5.0000
     835,      34.0000,      30.0000,       0.0000
     836,      34.0000,      30.0000,       2.5000
     837,      34.0000,      30.0000,       5.0000
     838,      34.0000,      32.0000,       0.0000
     839,      34.0000,      32.0000,       2.5000
     840,      34.0000,      32.0000,       5.0000
     841,      34.0000,      34.0000,       0.0000
     842,      34.0000,      34.0000,       2.5000
     843,      34.0000,      34.0000,       5.0000
     844,      34.0000,      36.0000,       0.0000
     845,      34.0000,      36.0000,       2.5000
     846,      34.0000,      36.0000,       5.0000
     847,      34.0000,      38.0000,       0.0000
     848,      34.0000,      38.0000,       2.5000
     849,      34.0000,      38.0000,       5.0000
     850,      34.0000,      40.0000,       0.0000
     851,      34.0000,      40.0000,       2.5000
     852,      34.0000,      40.0000,       5.0000
     853,      34.0000,      42.0000,       0.0000
     854,      34.0000,      42.0000,       2.5000
     855,      34.0000,      42.0000,       5.0000
     856,      34.0000,      44.0000,       0.0000
     857,      34.0000,      44.0000,       2.5000
     858,      34.0000,      44.0000,       5.0000
     859,      34.0000,      46.0000,       0.0000
     860,      34.0000,      46.0000,       2.5000
     861,      34.0000,      46.0000,       5.0000
     862,      34.0000,      48.0000,       0.0000
     863,      34.0000,      48.0000,       2.5000
     864,      34.0000,      48.0000,       5.0000
     865,      34.0000,      50.0000,       0.0000
     866,      34.0000,      50.0000,       2.5000
     867,      34.0000,      50.0000,       5.0000
     868,      34.0000,      52.0000,       0.0000
     869,      34.0000,      52.0000,       2.5000
     870,      34.0000,      52.0000,       5.0000
     871,      34.0000,      54.0000,       0.0000
     872,      34.0000,      54.0000,       2.5000
     873,      34.0000,      54.0000,       5.0000
     874,      34.0000,      56.0000,       0.0000
     875,      34.0000,      56.0000,       2.5000
     876,      34.0000,      56.0000,       5.0000
     877,      34.0000,      58.0000,       0.0000
     878,      34.0000,      58.0000,       2.5000
     879,      34.0000,      58.0000,       5.0000
     880,      34.0000,      60.0000,       0.0000
     881,      34.0000,      60.0000,       2.5000
     882,      34.0000,      60.0000,       5.0000
     883,      34.0000,      62.0000,       0.0000
     884,      34.0000,      62.0000,       2.5000
     885,      34.0000,      62.0000,       5.0000
     886,      34.0000,      64.0000,       0.0000
     887,      34.0000,      64.0000,       2.5000
     888,      34.0000,      64.0000,       5.0000
     889,      34.0000,      66.0000,       0.0000
     890,      34.0000,      66.0000,       2.5000
     891,      34.0000,      66.0000,       5.0000
     892,      34.0000,      68.0000,       0.0000
     893,      34.0000,      68.0000,       2.5000
     894,      34.0000,      68.0000,       5.0000
     895,      34.0000,      70.0000,       0.0000
     896,      34.0000,      70.0000,       2.5000
     897,      34.0000,      70.0000,       5.0000
     898,      34.0000,      72.0000,       0.0000
     899,      34.0000,      72.0000,       2.5000
     900,      34.0000,      72.0000,       5.0000
     901,      34.0000,      74.0000,       0.0000
     902,      34.0000,      74.0000,       2.5000
     903,      34.0000,      74.0000,       5.0000
     904,      34.0000,      76.0000,       0.0000
     905,      34.0000,      76.0000,       2.5000
     906,      34.0000,      76.0000,       5.0000
     907,      34.0000,      81.0000,       0.0000
     908,      34.0000,      81.0000,       2.5000
     909,      34.0000,      81.0000,       5.0000
     910,      34.0000,      86.0000,       0.0000
     911,      34.0000,      86.0000,       2.5000
     912,      34.0000,      86.0000,       5.0000
     913,      34.0000,      91.0000,       0.0000
     914,      34.0000,      91.0000,       2.5000
     915,      34.0000,      91.0000,       5.0000
     916,      34.0000,      96.0000,       0.0000
     917,      34.0000,      96.0000,       2.5000
     918,      34.0000,      96.0000,       5.0000
     919,      36.0000,       0.0000,       0.0000
     920,      36.0000,       0.0000,       2.5000
     921,      36.0000,       0.0000,       5.0000
     922,      36.0000,       5.0000,       0.0000
     923,      36.0000,       5.0000,       2.5000
     924,      36.0000,       5.0000,       5.0000
     925,      36.0000,      10.0000,       0.0000
     926,      36.0000,      10.0000,       2.5000
     927,      36.0000,      10.0000,       5.0000
     928,      36.0000,      15.0000,       0.0000
     929,      36.0000,      15.0000,       2.5000
     930,      36.0000,      15.0000,       5.0000
     931,      36.0000,      20.0000,       0.0000
     932,      36.0000,      20.0000,       2.5000
     933,      36.0000,      20.0000,       5.0000
     934,      36.0000,      25.0000,       0.0000
     935,      36.0000,      25.0000,       2.5000
     936,      36.0000,      25.0000,       5.0000
     937,      36.0000,      30.0000,       0.0000
     938,      36.0000,      30.0000,       2.5000
     939,      36.0000,      30.0000,       5.0000
     940,      36.0000,      32.0000,       0.0000
     941,      36.0000,      32.0000,       2.5000
     942,      36.0000,      32.0000,       5.0000
     943,      36.0000,      34.0000,       0.0000
     944,      36.0000,      34.0000,       2.5000
     945,      36.0000,      34.0000,       5.0000
     946,      36.0000,      36.0000,       0.0000
     947,      36.0000,      36.0000,       2.5000
     948,      36.0000,      36.0000,       5.0000
     949,      36.0000,      38.0000,       0.0000
     950,      36.0000,      38.0000,       2.5000
     951,      36.0000,      38.0000,       5.0000
     952,      36.0000,      40.0000,       0.0000
     953,      36.0000,      40.0000,       2.5000
     954,      36.0000,      40.0000,       5.0000
     955,      36.0000,      42.0000,       0.0000
     956,      36.0000,      42.0000,       2.5000
     957,      36.0000,      42.0000,       5.0000
     958,      36.0000,      44.0000,       0.0000
     959,      36.0000,      44.0000,       2.5000
     960,      36.0000,      44.0000,       5.0000
     961,      36.0000,      46.0000,       0.0000
     962,      36.0000,      46.0000,       2.5000
     963,      36.0000,      46.0000,       5.0000
     964,      36.0000,      48.0000,       0.0000
     965,      36.0000,      48.0000,       2.5000
     966,      36.0000,      48.0000,       5.0000
     967,      36.0000,      50.0000,       0.0000
     968,      36.0000,      50.0000,       2.5000
     969,      36.0000,      50.0000,       5.0000
     970,      36.0000,      52.0000,       0.0000
     971,      36.0000,      52.0000,       2.5000
     972,      36.0000,      52.0000,       5.0000
     973,      36.0000,      54.0000,       0.0000
     974,      36.0000,      54.0000,       2.5000
     975,      36.0000,      54.0000,       5.0000
     976,      36.0000,      56.0000,       0.0000
     977,      36.0000,      56.0000,       2.5000
     978,      36.0000,      56.0000,       5.0000
     979,      36.0000,      58.0000,       0.0000
     980,      36.0000,      58.0000,       2.5000
     981,      36.0000,      58.0000,       5.0000
     982,      36.0000,      60.0000,       0.0000
     983,      36.0000,      60.0000,       2.5000
     984,      36.0000,      60.0000,       5.0000
     985,      36.0000,      62.0000,       0.0000
     986,      36.0000,      62.0000,       2.5000
     987,      36.0000,      62.0000,       5.0000
     988,      36.0000,      64.0000,       0.0000
     989,      36.0000,      64.0000,       2.5000
     990,      36.0000,      64.0000,       5.0000
     991,      36.0000,      66.0000,       0.0000
     992,      36.0000,      66.0000,       2.5000
     993,      36.0000,      66.0000,       5.0000
     994,      36.0000,      68.0000,       0.0000
     995,      36.0000,      68.0000,       2.5000
     996,      36.0000,      68.0000,       5.0000
     997,      36.0000,      70.0000,       0.0000
     998,      36.0000,      70.0000,       2.5000
     999,      36.0000,      70.0000,       5.0000
    1000,      36.0000,      72.0000,       0.0000
    1001,      36.0000,      72.0000,       2.5000
    1002,      36.0000,      72.0000,       5.0000
    1003,      36.0000,      74.0000,       0.0000
    1004,      36.0000,      74.0000,       2.5000
    1005,      36.0000,      74.0000,       5.0000
    1006,      36.0000,      76.0000,       0.0000
    1007,      36.0000,      76.0000,       2.5000
    1008,      36.0000,      76.0000,       5.0000
    1009,      36.0000,      81.0000,       0.0000
    1010,      36.0000,      81.0000,       2.5000
    1011,      36.0000,      81.0000,       5.0000
    1012,      36.0000,      86.0000,       0.0000
    1013,      36.0000,      86.0000,       2.5000
    1014,      36.0000,      86.0000,       5.0000
    1015,      36.0000,      91.0000,       0.0000
    1016,      36.0000,      91.0000,       2.5000
    1017,      36.0000,      91.0000,       5.0000
    1018,      36.0000,      96.0000,       0.0000
    1019,      36.0000,      96.0000,       2.5000
    1020,      36.0000,      96.0000,       5.0000
    1021,      38.0000,       0.0000,       0.0000
    1022,      38.0000,       0.0000,       2.5000
    1023,      38.0000,       0.0000,       5.0000
    1024,      38.0000,       5.0000,       0.0000
    1025,      38.0000,       5.0000,       2.5000
    1026,      38.0000,       5.0000,       5.0000
    1027,      38.0000,      10.0000,       0.0000
    1028,      38.0000,      10.0000,       2.5000
    1029,      38.0000,      10.0000,       5.0000
    1030,      38.0000,      15.0000,       0.0000
    1031,      38.0000,      15.0000,       2.5000
    1032,      38.0000,      15.0000,       5.0000
    1033,      38.0000,      20.0000,       0.0000
    1034,      38.0000,      20.0000,       2.5000
    1035,      38.0000,      20.0000,       5.0000
    1036,      38.0000,      25.0000,       0.0000
    1037,      38.0000,      25.0000,       2.5000
    1038,      38.0000,      25.0000,       5.0000
    1039,      38.0000,      30.0000,       0.0000
    1040,      38.0000,      30.0000,       2.5000
    1041,      38.0000,      30.0000,       5.0000
    1042,      38.0000,      32.0000,       0.0000
    1043,      38.0000,      32.0000,       2.5000
    1044,      38.0000,      32.0000,       5.0000
    1045,      38.0000,      34.0000,       0.0000
    1046,      38.0000,      34.0000,       2.5000
    1047,      38.0000,      34.0000,       5.0000
    1048,      38.0000,      36.0000,       0.0000
    1049,      38.0000,      36.0000,       2.5000
    1050,      38.0000,      36.0000,       5.0000
    1051,      38.0000,      38.0000,       0.0000
    1052,      38.0000,      38.0000,       2.5000
    1053,      38.0000,      38.0000,       5.0000
    1054,      38.0000,      40.0000,       0.0000
    1055,      38.0000,      40.0000,       2.5000
    1056,      38.0000,      40.0000,       5.0000
    1057,      38.0000,      42.0000,       0.0000
    1058,      38.0000,      42.0000,       2.5000
    1059,      38.0000,      42.0000,       5.0000
    1060,      38.0000,      44.0000,       0.0000
    1061,      38.0000,      44.0000,       2.5000
    1062,      38.0000,      44.0000,       5.0000
    1063,      38.0000,      46.0000,       0.0000
    1064,      38.0000,      46.0000,       2.5000
    1065,      38.0000,      46.0000,       5.0000
    1066,      38.0000,      48.0000,       0.0000
    1067,      38.0000,      48.0000,       2.5000
    1068,      38.0000,      48.0000,       5.0000
    1069,      38.0000,      50.0000,       0.0000
    1070,      38.0000,      50.0000,       2.5000
    1071,      38.0000,      50.0000,       5.0000
    1072,      38.0000,      52.0000,       0.0000
    1073,      38.0000,      52.0000,       2.5000
    1074,      38.0000,      52.0000,       5.0000
    1075,      38.0000,      54.0000,       0.0000
    1076,      38.0000,      54.0000,       2.5000
    1077,      38.0000,      54.0000,       5.0000
    1078,      38.0000,      56.0000,       0.0000
    1079,      38.0000,      56.0000,       2.5000
    1080,      38.0000,      56.0000,       5.0000
    1081,      38.0000,      58.0000,       0.0000
    1082,      38.0000,      58.0000,       2.5000
    1083,      38.0000,      58.0000,       5.0000
    1084,      38.0000,      60.0000,       0.0000
    1085,      38.0000,      60.0000,       2.5000
    1086,      38.0000,      60.0000,       5.0000
    1087,      38.0000,      62.0000,       0.0000
    1088,      38.0000,      62.0000,       2.5000
    1089,      38.0000,      62.0000,       5.0000
    1090,      38.0000,      64.0000,       0.0000
    1091,      38.0000,      64.0000,       2.5000
    1092,      38.0000,      64.0000,       5.0000
    1093,      38.0000,      66.0000,       0.0000
    1094,      38.0000,      66.0000,       2.5000
    1095,      38.0000,      66.0000,       5.0000
    1096,      38.0000,      68.0000,       0.0000
    1097,      38.0000,      68.0000,       2.5000
    1098,      38.0000,      68.0000,       5.0000
    1099,      38.0000,      70.0000,       0.0000
    1100,      38.0000,      70.0000,       2.5000
    1101,      38.0000,      70.0000,       5.0000
    1102,      38.0000,      72.0000,       0.0000
    1103,      38.0000,      72.0000,       2.5000
    1104,      38.0000,      72.0000,       5.0000
    1105,      38.0000,      74.0000,       0.0000
    1106,      38.0000,      74.0000,       2.5000
    1107,      38.0000,      74.0000,       5.0000
    1108,      38.0000,      76.0000,       0.0000
    1109,      38.0000,      76.0000,       2.5000
    1110,      38.0000,      76.0000,       5.0000
    1111,      38.0000,      81.0000,       0.0000
    1112,      38.0000,      81.0000,       2.5000
    1113,      38.0000,      81.0000,       5.0000
    1114,      38.0000,      86.0000,       0.0000
    1115,      38.0000,      86.0000,       2.5000
    1116,      38.0000,      86.0000,       5.0000
    1117,      38.0000,      91.0000,       0.0000
    1118,      38.0000,      91.0000,       2.5000
    1119,      38.0000,      91.0000,       5.0000
    1120,      38.0000,      96.0000,       0.0000
    1121,      38.0000,      96.0000,       2.5000
    1122,      38.0000,      96.0000,       5.0000
    1123,      40.0000,       0.0000,       0.0000
    1124,      40.0000,       0.0000,       2.5000
    1125,      40.0000,       0.0000,       5.0000
    1126,      40.0000,       5.0000,       0.0000
    1127,      40.0000,       5.0000,       2.5000
    1128,      40.0000,       5.0000,       5.0000
    1129,      40.0000,      10.0000,       0.0000
    1130,      40.0000,      10.0000,       2.5000
    1131,      40.0000,      10.0000,       5.0000
    1132,      40.0000,      15.0000,       0.0000
    1133,      40.0000,      15.0000,       2.5000
    1134,      40.0000,      15.0000,       5.0000
    1135,      40.0000,      20.0000,       0.0000
    1136,      40.0000,      20.0000,       2.5000
    1137,      40.0000,      20.0000,       5.0000
    1138,      40.0000,      25.0000,       0.0000
    1139,      40.0000,      25.0000,       2.5000
    1140,      40.0000,      25.0000,       5.0000
    1141,      40.0000,      30.0000,       0.0000
    1142,      40.0000,      30.0000,       2.5000
    1143,      40.0000,      30.0000,       5.0000
    1144,      40.0000,      32.0000,       0.0000
    1145,      40.0000,      32.0000,       2.5000
    1146,      40.0000,      32.0000,       5.0000
    1147,      40.0000,      34.0000,       0.0000
    1148,      40.0000,      34.0000,       2.5000
    1149,      40.0000,      34.0000,       5.0000
    1150,      40.0000,      36.0000,       0.0000
    1151,      40.0000,      36.0000,       2.5000
    1152,      40.0000,      36.0000,       5.0000
    1153,      40.0000,      38.0000,       0.0000
    1154,      40.0000,      38.0000,       2.5000
    1155,      40.0000,      38.0000,       5.0000
    1156,      40.0000,      40.0000,       0.0000
    1157,      40.0000,      40.0000,       2.5000
    1158,      40.0000,      40.0000,       5.0000
    1159,      40.0000,      42.0000,       0.0000
    1160,      40.0000,      42.0000,       2.5000
    1161,      40.0000,      42.0000,       5.0000
    1162,      40.0000,      44.0000,       0.0000
    1163,      40.0000,      44.0000,       2.5000
    1164,      40.0000,      44.0000,       5.0000
    1165,      40.0000,      46.0000,       0.0000
    1166,      40.0000,      46.0000,       2.5000
    1167,      40.0000,      46.0000,       5.0000
    1168,      40.0000,      48.0000,       0.0000
    1169,      40.0000,      48.0000,       2.5000
    1170,      40.0000,      48.0000,       5.0000
    1171,      40.0000,      50.0000,       0.0000
    1172,      40.0000,      50.0000,       2.5000
    1173,      40.0000,      50.0000,       5.0000
    1174,      40.0000,      52.0000,       0.0000
    1175,      40.0000,      52.0000,       2.5000
    1176,      40.0000,      52.0000,       5.0000
    1177,      40.0000,      54.0000,       0.0000
    1178,      40.0000,      54.0000,       2.5000
    1179,      40.0000,      54.0000,       5.0000
    1180,      40.0000,      56.0000,       0.0000
    1181,      40.0000,      56.0000,       2.5000
    1182,      40.0000,      56.0000,       5.0000
    1183,      40.0000,      58.0000,       0.0000
    1184,      40.0000,      58.0000,       2.5000
    1185,      40.0000,      58.0000,       5.0000
    1186,      40.0000,      60.0000,       0.0000
    1187,      40.0000,      60.0000,       2.5000
    1188,      40.0000,      60.0000,       5.0000
    1189,      40.0000,      62.0000,       0.0000
    1190,      40.0000,      62.0000,       2.5000
    1191,      40.0000,      62.0000,       5.0000
    1192,      40.0000,      64.0000,       0.0000
    1193,      40.0000,      64.0000,       2.5000
    1194,      40.0000,      64.0000,       5.0000
    1195,      40.0000,      66.0000,       0.0000
    1196,      40.0000,      66.0000,       2.5000
    1197,      40.0000,      66.0000,       5.0000
    1198,      40.0000,      68.0000,       0.0000
    1199,      40.0000,      68.0000,       2.5000
    1200,      40.0000,      68.0000,       5.0000
    1201,      40.0000,      70.0000,       0.0000
    1202,      40.0000,      70.0000,       2.5000
    1203,      40.0000,      70.0000,       5.0000
    1204,      40.0000,      72.0000,       0.0000
    1205,      40.0000,      72.0000,       2.5000
    1206,      40.0000,      72.0000,       5.0000
    1207,      40.0000,      74.0000,       0.0000
    1208,      40.0000,      74.0000,       2.5000
    1209,      40.0000,      74.0000,       5.0000
    1210,      40.0000,      76.0000,       0.0000
    1211,      40.0000,      76.0000,       2.5000
    1212,      40.0000,      76.0000,       5.0000
    1213,      40.0000,      81.0000,       0.0000
    1214,      40.0000,      81.0000,       2.5000
    1215,      40.0000,      81.0000,       5.0000
    1216,      40.0000,      86.0000,       0.0000
    1217,      40.0000,      86.0000,       2.5000
    1218,      40.0000,      86.0000,       5.0000
    1219,      40.0000,      91.0000,       0.0000
    1220,      40.0000,      91.0000,       2.5000
    1221,      40.0000,      91.0000,       5.0000
    1222,      40.0000,      96.0000,       0.0000
    1223,      40.0000,      96.0000,       2.5000
    1224,      40.0000,      96.0000,       5.0000
    1225,      42.0000,       0.0000,       0.0000
    1226,      42.0000,       0.0000,       2.5000
    1227,      42.0000,       0.0000,       5.0000
    1228,      42.0000,       5.0000,       0.0000
    1229,      42.0000,       5.0000,       2.5000
    1230,      42.0000,       5.0000,       5.0000
    1231,      42.0000,      10.0000,       0.0000
    1232,      42.0000,      10.0000,       2.5000
    1233,      42.0000,      10.0000,       5.0000
    1234,      42.0000,      15.0000,       0.0000
    1235,      42.0000,      15.0000,       2.5000
    1236,      42.0000,      15.0000,       5.0000
    1237,      42.0000,      20.0000,       0.0000
    1238,      42.0000,      20.0000,       2.5000
    1239,      42.0000,      20.0000,       5.0000
    1240,      42.0000,      25.0000,       0.0000
    1241,      42.0000,      25.0000,       2.5000
    1242,      42.0000,      25.0000,       5.0000
    1243,      42.0000,      30.0000,       0.0000
    1244,      42.0000,      30.0000,       2.5000
    1245,      42.0000,      30.0000,       5.0000
    1246,      42.0000,      32.0000,       0.0000
    1247,      42.0000,      32.0000,       2.5000
    1248,      42.0000,      32.0000,       5.0000
    1249,      42.0000,      34.0000,       0.0000
    1250,      42.0000,      34.0000,       2.5000
    1251,      42.0000,      34.0000,       5.0000
    1252,      42.0000,      36.0000,       0.0000
    1253,      42.0000,      36.0000,       2.5000
    1254,      42.0000,      36.0000,       5.0000
    1255,      42.0000,      38.0000,       0.0000
    1256,      42.0000,      38.0000,       2.5000
    1257,      42.0000,      38.0000,       5.0000
    1258,      42.0000,      40.0000,       0.0000
    1259,      42.0000,      40.0000,       2.5000
    1260,      42.0000,      40.0000,       5.0000
    1261,      42.0000,      42.0000,       0.0000
    1262,      42.0000,      42.0000,       2.5000
    1263,      42.0000,      42.0000,       5.0000
    1264,      42.0000,      44.0000,       0.0000
    1265,      42.0000,      44.0000,       2.5000
    1266,      42.0000,      44.0000,       5.0000
    1267,      42.0000,      56.0000,       0.0000
    1268,      42.0000,      56.0000,       2.5000
    1269,      42.0000,      56.0000,       5.0000
    1270,      42.0000,      58.0000,       0.0000
    1271,      42.0000,      58.0000,       2.5000
    1272,      42.0000,      58.0000,       5.0000
    1273,      42.0000,      60.0000,       0.0000
    1274,      42.0000,      60.0000,       2.5000
    1275,      42.0000,      60.0000,       5.0000
    1276,      42.0000,      62.0000,       0.0000
    1277,      42.0000,      62.0000,       2.5000
    1278,      42.0000,      62.0000,       5.0000
    1279,      42.0000,      64.0000,       0.0000
    1280,      42.0000,      64.0000,       2.5000
    1281,      42.0000,      64.0000,       5.0000
    1282,      42.0000,      66.0000,       0.0000
    1283,      42.0000,      66.0000,       2.5000
    1284,      42.0000,      66.0000,       5.0000
    1285,      42.0000,      68.0000,       0.0000
    1286,      42.0000,      68.0000,       2.5000
    1287,      42.0000,      68.0000,       5.0000
    1288,      42.0000,      70.0000,       0.0000
    1289,      42.0000,      70.0000,       2.5000
    1290,      42.0000,      70.0000,       5.0000
    1291,      42.0000,      72.0000,       0.0000
    1292,      42.0000,      72.0000,       2.5000
    1293,      42.0000,      72.0000,       5.0000
    1294,      42.0000,      74.0000,       0.0000
    1295,      42.0000,      74.0000,       2.5000
    1296,      42.0000,      74.0000,       5.0000
    1297,      42.0000,      76.0000,       0.0000
    1298,      42.0000,      76.0000,       2.5000
    1299,      42.0000,      76.0000,       5.0000
    1300,      42.0000,      81.0000,       0.0000
    1301,      42.0000,      81.0000,       2.5000
    1302,      42.0000,      81.0000,       5.0000
    1303,      42.0000,      86.0000,       0.0000
    1304,      42.0000,      86.0000,       2.5000
    1305,      42.0000,      86.0000,       5.0000
    1306,      42.0000,      91.0000,       0.0000
    1307,      42.0000,      91.0000,       2.5000
    1308,      42.0000,      91.0000,       5.0000
    1309,      42.0000,      96.0000,       0.0000
    1310,      42.0000,      96.0000,       2.5000
    1311,      42.0000,      96.0000,       5.0000
    1312,      44.0000,       0.0000,       0.0000
    1313,      44.0000,       0.0000,       2.5000
    1314,      44.0000,       0.0000,       5.0000
    1315,      44.0000,       5.0000,       0.0000
    1316,      44.0000,       5.0000,       2.5000
    1317,      44.0000,       5.0000,       5.0000
    1318,      44.0000,      10.0000,       0.0000
    1319,      44.0000,      10.0000,       2.5000
    1320,      44.0000,      10.0000,       5.0000
    1321,      44.0000,      15.0000,       0.0000
    1322,      44.0000,      15.0000,       2.5000
    1323,      44.0000,      15.0000,       5.0000
    1324,      44.0000,      20.0000,       0.0000
    1325,      44.0000,      20.0000,       2.5000
    1326,      44.0000,      20.0000,       5.0000
    1327,      44.0000,      25.0000,       0.0000
    1328,      44.0000,      25.0000,       2.5000
    1329,      44.0000,      25.0000,       5.0000
    1330,      44.0000,      30.0000,       0.0000
    1331,      44.0000,      30.0000,       2.5000
    1332,      44.0000,      30.0000,       5.0000
    1333,      44.0000,      32.0000,       0.0000
    1334,      44.0000,      32.0000,       2.5000
    1335,      44.0000,      32.0000,       5.0000
    1336,      44.0000,      34.0000,       0.0000
    1337,      44.0000,      34.0000,       2.5000
    1338,      44.0000,      34.0000,       5.0000
    1339,      44.0000,      36.0000,       0.0000
    1340,      44.0000,      36.0000,       2.5000
    1341,      44.0000,      36.0000,       5.0000
    1342,      44.0000,      38.0000,       0.0000
    1343,      44.0000,      38.0000,       2.5000
    1344,      44.0000,      38.0000,       5.0000
    1345,      44.0000,      40.0000,       0.0000
    1346,      44.0000,      40.0000,       2.5000
    1347,      44.0000,      40.0000,       5.0000
    1348,      44.0000,      42.0000,       0.0000
    1349,      44.0000,      42.0000,       2.5000
    1350,      44.0000,      42.0000,       5.0000
    1351,      44.0000,      58.0000,       0.0000
    1352,      44.0000,      58.0000,       2.5000
    1353,      44.0000,      58.0000,       5.0000
    1354,      44.0000,      60.0000,       0.0000
    1355,      44.0000,      60.0000,       2.5000
    1356,      44.0000,      60.0000,       5.0000
    1357,      44.0000,      62.0000,       0.0000
    1358,      44.0000,      62.0000,       2.5000
    1359,      44.0000,      62.0000,       5.0000
    1360,      44.0000,      64.0000,       0.0000
    1361,      44.0000,      64.0000,       2.5000
    1362,      44.0000,      64.0000,       5.0000
    1363,      44.0000,      66.0000,       0.0000
    1364,      44.0000,      66.0000,       2.5000
    1365,      44.0000,      66.0000,       5.0000
    1366,      44.0000,      68.0000,       0.0000
    1367,      44.0000,      68.0000,       2.5000
    1368,      44.0000,      68.0000,       5.0000
    1369,      44.0000,      70.0000,       0.0000
    1370,      44.0000,      70.0000,       2.5000
    1371,      44.0000,      70.0000,       5.0000
    1372,      44.0000,      72.0000,       0.0000
    1373,      44.0000,      72.0000,       2.5000
    1374,      44.0000,      72.0000,       5.0000
    1375,      44.0000,      74.0000,       0.0000
    1376,      44.0000,      74.0000,       2.5000
    1377,      44.0000,      74.0000,       5.0000
    1378,      44.0000,      76.0000,       0.0000
    1379,      44.0000,      76.0000,       2.5000
    1380,      44.0000,      76.0000,       5.0000
    1381,      44.0000,      81.0000,       0.0000
    1382,      44.0000,      81.0000,       2.5000
    1383,      44.0000,      81.0000,       5.0000
    1384,      44.0000,      86.0000,       0.0000
    1385,      44.0000,      86.0000,       2.5000
    1386,      44.0000,      86.0000,       5.0000
    1387,      44.0000,      91.0000,       0.0000
    1388,      44.0000,      91.0000,       2.5000
    1389,      44.0000,      91.0000,       5.0000
    1390,      44.0000,      96.0000,       0.0000
    1391,      44.0000,      96.0000,       2.5000
    1392,      44.0000,      96.0000,       5.0000
    1393,      46.0000,       0.0000,       0.0000
    1394,      46.0000,       0.0000,       2.5000
    1395,      46.0000,       0.0000,       5.0000
    1396,      46.0000,       5.0000,       0.0000
    1397,      46.0000,       5.0000,       2.5000
    1398,      46.0000,       5.0000,       5.0000
    1399,      46.0000,      10.0000,       0.0000
    1400,      46.0000,      10.0000,       2.5000
    1401,      46.0000,      10.0000,       5.0000
    1402,      46.0000,      15.0000,       0.0000
    1403,      46.0000,      15.0000,       2.5000
    1404,      46.0000,      15.0000,       5.0000
    1405,      46.0000,      20.0000,       0.0000
    1406,      46.0000,      20.0000,       2.5000
    1407,      46.0000,      20.0000,       5.0000
    1408,      46.0000,      25.0000,       0.0000
    1409,      46.0000,      25.0000,       2.5000
    1410,      46.0000,      25.0000,       5.0000
    1411,      46.0000,      30.0000,       0.0000
    1412,      46.0000,      30.0000,       2.5000
    1413,      46.0000,      30.0000,       5.0000
    1414,      46.0000,      32.0000,       0.0000
    1415,      46.0000,      32.0000,       2.5000
    1416,      46.0000,      32.0000,       5.0000
    1417,      46.0000,      34.0000,       0.0000
    1418,      46.0000,      34.0000,       2.5000
    1419,      46.0000,      34.0000,       5.0000
    1420,      46.0000,      36.0000,       0.0000
    1421,      46.0000,      36.0000,       2.5000
    1422,      46.0000,      36.0000,       5.0000
    1423,      46.0000,      38.0000,       0.0000
    1424,      46.0000,      38.0000,       2.5000
    1425,      46.0000,      38.0000,       5.0000
    1426,      46.0000,      40.0000,       0.0000
    1427,      46.0000,      40.0000,       2.5000
    1428,      46.0000,      40.0000,       5.0000
    1429,      46.0000,      60.0000,       0.0000
    1430,      46.0000,      60.0000,       2.5000
    1431,      46.0000,      60.0000,       5.0000
    1432,      46.0000,      62.0000,       0.0000
    1433,      46.0000,      62.0000,       2.5000
    1434,      46.0000,      62.0000,       5.0000
    1435,      46.0000,      64.0000,       0.0000
    1436,      46.0000,      64.0000,       2.5000
    1437,      46.0000,      64.0000,       5.0000
    1438,      46.0000,      66.0000,       0.0000
    1439,      46.0000,      66.0000,       2.5000
    1440,      46.0000,      66.0000,       5.0000
    1441,      46.0000,      68.0000,       0.0000
    1442,      46.0000,      68.0000,       2.5000
    1443,      46.0000,      68.0000,       5.0000
    1444,      46.0000,      70.0000,       0.0000
    1445,      46.0000,      70.0000,       2.5000
    1446,      46.0000,      70.0000,       5.0000
    1447,      46.0000,      72.0000,       0.0000
    1448,      46.0000,      72.0000,       2.5000
    1449,      46.0000,      72.0000,       5.0000
    1450,      46.0000,      74.0000,       0.0000
    1451,      46.0000,      74.0000,       2.5000
    1452,      46.0000,      74.0000,       5.0000
    1453,      46.0000,      76.0000,       0.0000
    1454,      46.0000,      76.0000,       2.5000
    1455,      46.0000,      76.0000,       5.0000
    1456,      46.0000,      81.0000,       0.0000
    1457,      46.0000,      81.0000,       2.5000
    1458,      46.0000,      81.0000,       5.0000
    1459,      46.0000,      86.0000,       0.0000
    1460,      46.0000,      86.0000,       2.5000
    1461,      46.0000,      86.0000,       5.0000
    1462,      46.0000,      91.0000,       0.0000
    1463,      46.0000,      91.0000,       2.5000
    1464,      46.0000,      91.0000,       5.0000
    1465,      46.0000,      96.0000,       0.0000
    1466,      46.0000,      96.0000,       2.5000
    1467,      46.0000,      96.0000,       5.0000
    1468,      48.0000,       0.0000,       0.0000
    1469,      48.0000,       0.0000,       2.5000
    1470,      48.0000,       0.0000,       5.0000
    1471,      48.0000,       5.0000,       0.0000
    1472,      48.0000,       5.0000,       2.5000
    1473,      48.0000,       5.0000,       5.0000
    1474,      48.0000,      10.0000,       0.0000
    1475,      48.0000,      10.0000,       2.5000
    1476,      48.0000,      10.0000,       5.0000
    1477,      48.0000,      15.0000,       0.0000
    1478,      48.0000,      15.0000,       2.5000
    1479,      48.0000,      15.0000,       5.0000
    1480,      48.0000,      20.0000,       0.0000
    1481,      48.0000,      20.0000,       2.5000
    1482,      48.0000,      20.0000,       5.0000
    1483,      48.0000,      25.0000,       0.0000
    1484,      48.0000,      25.0000,       2.5000
    1485,      48.0000,      25.0000,       5.0000
    1486,      48.0000,      30.0000,       0.0000
    1487,      48.0000,      30.0000,       2.5000
    1488,      48.0000,      30.0000,       5.0000
    1489,      48.0000,      32.0000,       0.0000
    1490,      48.0000,      32.0000,       2.5000
    1491,      48.0000,      32.0000,       5.0000
    1492,      48.0000,      34.0000,       0.0000
    1493,      48.0000,      34.0000,       2.5000
    1494,      48.0000,      34.0000,       5.0000
    1495,      48.0000,      36.0000,       0.0000
    1496,      48.0000,      36.0000,       2.5000
    1497,      48.0000,      36.0000,       5.0000
    1498,      48.0000,      38.0000,       0.0000
    1499,      48.0000,      38.0000,       2.5000
    1500,      48.0000,      38.0000,       5.0000
    1501,      48.0000,      40.0000,       0.0000
    1502,      48.0000,      40.0000,       2.5000
    1503,      48.0000,      40.0000,       5.0000
    1504,      48.0000,      60.0000,       0.0000
    1505,      48.0000,      60.0000,       2.5000
    1506,      48.0000,      60.0000,       5.0000
    1507,      48.0000,      62.0000,       0.0000
    1508,      48.0000,      62.0000,       2.5000
    1509,      48.0000,      62.0000,       5.0000
    1510,      48.0000,      64.0000,       0.0000
    1511,      48.0000,      64.0000,       2.5000
    1512,      48.0000,      64.0000,       5.0000
    1513,      48.0000,      66.0000,       0.0000
    1514,      48.0000,      66.0000,       2.5000
    1515,      48.0000,      66.0000,       5.0000
    1516,      48.0000,      68.0000,       0.0000
    1517,      48.0000,      68.0000,       2.5000
    1518,      48.0000,      68.0000,       5.0000
    1519,      48.0000,      70.0000,       0.0000
    1520,      48.0000,      70.0000,       2.5000
    1521,      48.0000,      70.0000,       5.0000
    1522,      48.0000,      72.0000,       0.0000
    1523,      48.0000,      72.0000,       2.5000
    1524,      48.0000,      72.0000,       5.0000
    1525,      48.0000,      74.0000,       0.0000
    1526,      48.0000,      74.0000,       2.5000
    1527,      48.0000,      74.0000,       5.0000
    1528,      48.0000,      76.0000,       0.0000
    1529,      48.0000,      76.0000,       2.5000
    1530,      48.0000,      76.0000,       5.0000
    1531,      48.0000,      81.0000,       0.0000
    1532,      48.0000,      81.0000,       2.5000
    1533,      48.0000,      81.0000,       5.0000
    1534,      48.0000,      86.0000,       0.0000
    1535,      48.0000,      86.0000,       2.5000
    1536,      48.0000,      86.0000,       5.0000
    1537,      48.0000,      91.0000,       0.0000
    1538,      48.0000,      91.0000,       2.5000
    1539,      48.0000,      91.0000,       5.0000
    1540,      48.0000,      96.0000,       0.0000
    1541,      48.0000,      96.0000,       2.5000
    1542,      48.0000,      96.0000,       5.0000
    1543,      50.0000,       0.0000,       0.0000
    1544,      50.0000,       0.0000,       2.5000
    1545,      50.0000,       0.0000,       5.0000
    1546,      50.0000,       5.0000,       0.0000
    1547,      50.0000,       5.0000,       2.5000
    1548,      50.0000,       5.0000,       5.0000
    1549,      50.0000,      10.0000,       0.0000
    1550,      50.0000,      10.0000,       2.5000
    1551,      50.0000,      10.0000,       5.0000
    1552,      50.0000,      15.0000,       0.0000
    1553,      50.0000,      15.0000,       2.5000
    1554,      50.0000,      15.0000,       5.0000
    1555,      50.0000,      20.0000,       0.0000
    1556,      50.0000,      20.0000,       2.5000
    1557,      50.0000,      20.0000,       5.0000
    1558,      50.0000,      25.0000,       0.0000
    1559,      50.0000,      25.0000,       2.5000
    1560,      50.0000,      25.0000,       5.0000
    1561,      50.0000,      30.0000,       0.0000
    1562,      50.0000,      30.0000,       2.5000
    1563,      50.0000,      30.0000,       5.0000
    1564,      50.0000,      32.0000,       0.0000
    1565,      50.0000,      32.0000,       2.5000
    1566,      50.0000,      32.0000,       5.0000
    1567,      50.0000,      34.0000,       0.0000
    1568,      50.0000,      34.0000,       2.5000
    1569,      50.0000,      34.0000,       5.0000
    1570,      50.0000,      36.0000,       0.0000
    1571,      50.0000,      36.0000,       2.5000
    1572,      50.0000,      36.0000,       5.0000
    1573,      50.0000,      38.0000,       0.0000
    1574,      50.0000,      38.0000,       2.5000
    1575,      50.0000,      38.0000,       5.0000
    1576,      50.0000,      40.0000,       0.0000
    1577,      50.0000,      40.0000,       2.5000
    1578,      50.0000,      40.0000,       5.0000
    1579,      50.0000,      60.0000,       0.0000
    1580,      50.0000,      60.0000,       2.5000
    1581,      50.0000,      60.0000,       5.0000
    1582,      50.0000,      62.0000,       0.0000
    1583,      50.0000,      62.0000,       2.5000
    1584,      50.0000,      62.0000,       5.0000
    1585,      50.0000,      64.0000,       0.0000
    1586,      50.0000,      64.0000,       2.5000
    1587,      50.0000,      64.0000,       5.0000
    1588,      50.0000,      66.0000,       0.0000
    1589,      50.0000,      66.0000,       2.5000
    1590,      50.0000,      66.0000,       5.0000
    1591,      50.0000,      68.0000,       0.0000
    1592,      50.0000,      68.0000,       2.5000
    1593,      50.0000,      68.0000,       5.0000
    1594,      50.0000,      70.0000,       0.0000
    1595,      50.0000,      70.0000,       2.5000
    1596,      50.0000,      70.0000,       5.0000
    1597,      50.0000,      72.0000,       0.0000
    1598,      50.0000,      72.0000,       2.5000
    1599,      50.0000,      72.0000,       5.0000
    1600,      50.0000,      74.0000,       0.0000
    1601,      50.0000,      74.0000,       2.5000
    1602,      50.0000,      74.0000,       5.0000
    1603,      50.0000,      76.0000,       0.0000
    1604,      50.0000,      76.0000,       2.5000
    1605,      50.0000,      76.0000,       5.0000
    1606,      50.0000,      81.0000,       0.0000
    1607,      50.0000,      81.0000,       2.5000
    1608,      50.0000,      81.0000,       5.0000
    1609,      50.0000,      86.0000,       0.0000
    1610,      50.0000,      86.0000,       2.5000
    1611,      50.0000,      86.0000,       5.0000
    1612,      50.0000,      91.0000,       0.0000
    1613,      50.0000,      91.0000,       2.5000
    1614,      50.0000,      91.0000,       5.0000
    1615,      50.0000,      96.0000,       0.0000
    1616,      50.0000,      96.0000,       2.5000
    1617,      50.0000,      96.0000,       5.0000
    1618,      52.0000,       0.0000,       0.0000
    1619,      52.0000,       0.0000,       2.5000
    1620,      52.0000,       0.0000,       5.0000
    1621,      52.0000,       5.0000,       0.0000
    1622,      52.0000,       5.0000,       2.5000
    1623,      52.0000,       5.0000,       5.0000
    1624,      52.0000,      10.0000,       0.0000
    1625,      52.0000,      10.0000,       2.5000
    1626,      52.0000,      10.0000,       5.0000
    1627,      52.0000,      15.0000,       0.0000
    1628,      52.0000,      15.0000,       2.5000
    1629,      52.0000,      15.0000,       5.0000
    1630,      52.0000,      20.0000,       0.0000
    1631,      52.0000,      20.0000,       2.5000
    1632,      52.0000,      20.0000,       5.0000
    1633,      52.0000,      25.0000,       0.0000
    1634,      52.0000,      25.0000,       2.5000
    1635,      52.0000,      25.0000,       5.0000
    1636,      52.0000,      30.0000,       0.0000
    1637,      52.0000,      30.0000,       2.5000
    1638,      52.0000,      30.0000,       5.0000
    1639,      52.0000,      32.0000,       0.0000
    1640,      52.0000,      32.0000,       2.5000
    1641,      52.0000,      32.0000,       5.0000
    1642,      52.0000,      34.0000,       0.0000
    1643,      52.0000,      34.0000,       2.5000
    1644,      52.0000,      34.0000,       5.0000
    1645,      52.0000,      36.0000,       0.0000
    1646,      52.0000,      36.0000,       2.5000
    1647,      52.0000,      36.0000,       5.0000
    1648,      52.0000,      38.0000,       0.0000
    1649,      52.0000,      38.0000,       2.5000
    1650,      52.0000,      38.0000,       5.0000
    1651,      52.0000,      40.0000,       0.0000
    1652,      52.0000,      40.0000,       2.5000
    1653,      52.0000,      40.0000,       5.0000
    1654,      52.0000,      60.0000,       0.0000
    1655,      52.0000,      60.0000,       2.5000
    1656,      52.0000,      60.0000,       5.0000
    1657,      52.0000,      62.0000,       0.0000
    1658,      52.0000,      62.0000,       2.5000
    1659,      52.0000,      62.0000,       5.0000
    1660,      52.0000,      64.0000,       0.0000
    1661,      52.0000,      64.0000,       2.5000
    1662,      52.0000,      64.0000,       5.0000
    1663,      52.0000,      66.0000,       0.0000
    1664,      52.0000,      66.0000,       2.5000
    1665,      52.0000,      66.0000,       5.0000
    1666,      52.0000,      68.0000,       0.0000
    1667,      52.0000,      68.0000,       2.5000
    1668,      52.0000,      68.0000,       5.0000
    1669,      52.0000,      70.0000,       0.0000
    1670,      52.0000,      70.0000,       2.5000
    1671,      52.0000,      70.0000,       5.0000
    1672,      52.0000,      72.0000,       0.0000
    1673,      52.0000,      72.0000,       2.5000
    1674,      52.0000,      72.0000,       5.0000
    1675,      52.0000,      74.0000,       0.0000
    1676,      52.0000,      74.0000,       2.5000
    1677,      52.0000,      74.0000,       5.0000
    1678,      52.0000,      76.0000,       0.0000
    1679,      52.0000,      76.0000,       2.5000
    1680,      52.0000,      76.0000,       5.0000
    1681,      52.0000,      81.0000,       0.0000
    1682,      52.0000,      81.0000,       2.5000
    1683,      52.0000,      81.0000,       5.0000
    1684,      52.0000,      86.0000,       0.0000
    1685,      52.0000,      86.0000,       2.5000
    1686,      52.0000,      86.0000,       5.0000
    1687,      52.0000,      91.0000,       0.0000
    1688,      52.0000,      91.0000,       2.5000
    1689,      52.0000,      91.0000,       5.0000
    1690,      52.0000,      96.0000,       0.0000
    1691,      52.0000,      96.0000,       2.5000
    1692,      52.0000,      96.0000,       5.0000
    1693,      54.0000,       0.0000,       0.0000
    1694,      54.0000,       0.0000,       2.5000
    1695,      54.0000,       0.0000,       5.0000
    1696,      54.0000,       5.0000,       0.0000
    1697,      54.0000,       5.0000,       2.5000
    1698,      54.0000,       5.0000,       5.0000
    1699,      54.0000,      10.0000,       0.0000
    1700,      54.0000,      10.0000,       2.5000
    1701,      54.0000,      10.0000,       5.0000
    1702,      54.0000,      15.0000,       0.0000
    1703,      54.0000,      15.0000,       2.5000
    1704,      54.0000,      15.0000,       5.0000
    1705,      54.0000,      20.0000,       0.0000
    1706,      54.0000,      20.0000,       2.5000
    1707,      54.0000,      20.0000,       5.0000
    1708,      54.0000,      25.0000,       0.0000
    1709,      54.0000,      25.0000,       2.5000
    1710,      54.0000,      25.0000,       5.0000
    1711,      54.0000,      30.0000,       0.0000
    1712,      54.0000,      30.0000,       2.5000
    1713,      54.0000,      30.0000,       5.0000
    1714,      54.0000,      32.0000,       0.0000
    1715,      54.0000,      32.0000,       2.5000
    1716,      54.0000,      32.0000,       5.0000
    1717,      54.0000,      34.0000,       0.0000
    1718,      54.0000,      34.0000,       2.5000
    1719,      54.0000,      34.0000,       5.0000
    1720,      54.0000,      36.0000,       0.0000
    1721,      54.0000,      36.0000,       2.5000
    1722,      54.0000,      36.0000,       5.0000
    1723,      54.0000,      38.0000,       0.0000
    1724,      54.0000,      38.0000,       2.5000
    1725,      54.0000,      38.0000,       5.0000
    1726,      54.0000,      40.0000,       0.0000
    1727,      54.0000,      40.0000,       2.5000
    1728,      54.0000,      40.0000,       5.0000
    1729,      54.0000,      60.0000,       0.0000
    1730,      54.0000,      60.0000,       2.5000
    1731,      54.0000,      60.0000,       5.0000
    1732,      54.0000,      62.0000,       0.0000
    1733,      54.0000,      62.0000,       2.5000
    1734,      54.0000,      62.0000,       5.0000
    1735,      54.0000,      64.0000,       0.0000
    1736,      54.0000,      64.0000,       2.5000
    1737,      54.0000,      64.0000,       5.0000
    1738,      54.0000,      66.0000,       0.0000
    1739,      54.0000,      66.0000,       2.5000
    1740,      54.0000,      66.0000,       5.0000
    1741,      54.0000,      68.0000,       0.0000
    1742,      54.0000,      68.0000,       2.5000
    1743,      54.0000,      68.0000,       5.0000
    1744,      54.0000,      70.0000,       0.0000
    1745,      54.0000,      70.0000,       2.5000
    1746,      54.0000,      70.0000,       5.0000
    1747,      54.0000,      72.0000,       0.0000
    1748,      54.0000,      72.0000,       2.5000
    1749,      54.0000,      72.0000,       5.0000
    1750,      54.0000,      74.0000,       0.0000
    1751,      54.0000,      74.0000,       2.5000
    1752,      54.0000,      74.0000,       5.0000
    1753,      54.0000,      76.0000,       0.0000
    1754,      54.0000,      76.0000,       2.5000
    1755,      54.0000,      76.0000,       5.0000
    1756,      54.0000,      81.0000,       0.0000
    1757,      54.0000,      81.0000,       2.5000
    1758,      54.0000,      81.0000,       5.0000
    1759,      54.0000,      86.0000,       0.0000
    1760,      54.0000,      86.0000,       2.5000
    1761,      54.0000,      86.0000,       5.0000
    1762,      54.0000,      91.0000,       0.0000
    1763,      54.0000,      91.0000,       2.5000
    1764,      54.0000,      91.0000,       5.0000
    1765,      54.0000,      96.0000,       0.0000
    1766,      54.0000,      96.0000,       2.5000
    1767,      54.0000,      96.0000,       5.0000
    1768,      56.0000,       0.0000,       0.0000
    1769,      56.0000,       0.0000,       2.5000
    1770,      56.0000,       0.0000,       5.0000
    1771,      56.0000,       5.0000,       0.0000
    1772,      56.0000,       5.0000,       2.5000
    1773,      56.0000,       5.0000,       5.0000
    1774,      56.0000,      10.0000,       0.0000
    1775,      56.0000,      10.0000,       2.5000
    1776,      56.0000,      10.0000,       5.0000
    1777,      56.0000,      15.0000,       0.0000
    1778,      56.0000,      15.0000,       2.5000
    1779,      56.0000,      15.0000,       5.0000
    1780,      56.0000,      20.0000,       0.0000
    1781,      56.0000,      20.0000,       2.5000
    1782,      56.0000,      20.0000,       5.0000
    1783,      56.0000,      25.0000,       0.0000
    1784,      56.0000,      25.0000,       2.5000
    1785,      56.0000,      25.0000,       5.0000
    1786,      56.0000,      30.0000,       0.0000
    1787,      56.0000,      30.0000,       2.5000
    1788,      56.0000,      30.0000,       5.0000
    1789,      56.0000,      32.0000,       0.0000
    1790,      56.0000,      32.0000,       2.5000
    1791,      56.0000,      32.0000,       5.0000
    1792,      56.0000,      34.0000,       0.0000
    1793,      56.0000,      34.0000,       2.5000
    1794,      56.0000,      34.0000,       5.0000
    1795,      56.0000,      36.0000,       0.0000
    1796,      56.0000,      36.0000,       2.5000
    1797,      56.0000,      36.0000,       5.0000
    1798,      56.0000,      38.0000,       0.0000
    1799,      56.0000,      38.0000,       2.5000
    1800,      56.0000,      38.0000,       5.0000
    1801,      56.0000,      40.0000,       0.0000
    1802,      56.0000,      40.0000,       2.5000
    1803,      56.0000,      40.0000,       5.0000
    1804,      56.0000,      42.0000,       0.0000
    1805,      56.0000,      42.0000,       2.5000
    1806,      56.0000,      42.0000,       5.0000
    1807,      56.0000,      58.0000,       0.0000
    1808,      56.0000,      58.0000,       2.5000
    1809,      56.0000,      58.0000,       5.0000
    1810,      56.0000,      60.0000,       0.0000
    1811,      56.0000,      60.0000,       2.5000
    1812,      56.0000,      60.0000,       5.0000
    1813,      56.0000,      62.0000,       0.0000
    1814,      56.0000,      62.0000,       2.5000
    1815,      56.0000,      62.0000,       5.0000
    1816,      56.0000,      64.0000,       0.0000
    1817,      56.0000,      64.0000,       2.5000
    1818,      56.0000,      64.0000,       5.0000
    1819,      56.0000,      66.0000,       0.0000
    1820,      56.0000,      66.0000,       2.5000
    1821,      56.0000,      66.0000,       5.0000
    1822,      56.0000,      68.0000,       0.0000
    1823,      56.0000,      68.0000,       2.5000
    1824,      56.0000,      68.0000,       5.0000
    1825,      56.0000,      70.0000,       0.0000
    1826,      56.0000,      70.0000,       2.5000
    1827,      56.0000,      70.0000,       5.0000
    1828,      56.0000,      72.0000,       0.0000
    1829,      56.0000,      72.0000,       2.5000
    1830,      56.0000,      72.0000,       5.0000
    1831,      56.0000,      74.0000,       0.0000
    1832,      56.0000,      74.0000,       2.5000
    1833,      56.0000,      74.0000,       5.0000
    1834,      56.0000,      76.0000,       0.0000
    1835,      56.0000,      76.0000,       2.5000
    1836,      56.0000,      76.0000,       5.0000
    1837,      56.0000,      81.0000,       0.0000
    1838,      56.0000,      81.0000,       2.5000
    1839,      56.0000,      81.0000,       5.0000
    1840,      56.0000,      86.0000,       0.0000
    1841,      56.0000,      86.0000,       2.5000
    1842,      56.0000,      86.0000,       5.0000
    1843,      56.0000,      91.0000,       0.0000
    1844,      56.0000,      91.0000,       2.5000
    1845,      56.0000,      91.0000,       5.0000
    1846,      56.0000,      96.0000,       0.0000
    1847,      56.0000,      96.0000,       2.5000
    1848,      56.0000,      96.0000,       5.0000
    1849,      58.0000,       0.0000,       0.0000
    1850,      58.0000,       0.0000,       2.5000
    1851,      58.0000,       0.0000,       5.0000
    1852,      58.0000,       5.0000,       0.0000
    1853,      58.0000,       5.0000,       2.5000
    1854,      58.0000,       5.0000,       5.0000
    1855,      58.0000,      10.0000,       0.0000
    1856,      58.0000,      10.0000,       2.5000
    1857,      58.0000,      10.0000,       5.0000
    1858,      58.0000,      15.0000,       0.0000
    1859,      58.0000,      15.0000,       2.5000
    1860,      58.0000,      15.0000,       5.0000
    1861,      58.0000,      20.0000,       0.0000
    1862,      58.0000,      20.0000,       2.5000
    1863,      58.0000,      20.0000,       5.0000
    1864,      58.0000,      25.0000,       0.0000
    1865,      58.0000,      25.0000,       2.5000
    1866,      58.0000,      25.0000,       5.0000
    1867,      58.0000,      30.0000,       0.0000
    1868,      58.0000,      30.0000,       2.5000
    1869,      58.0000,      30.0000,       5.0000
    1870,      58.0000,      32.0000,       0.0000
    1871,      58.0000,      32.0000,       2.5000
    1872,      58.0000,      32.0000,       5.0000
    1873,      58.0000,      34.0000,       0.0000
    1874,      58.0000,      34.0000,       2.5000
    1875,      58.0000,      34.0000,       5.0000
    1876,      58.0000,      36.0000,       0.0000
    1877,      58.0000,      36.0000,       2.5000
    1878,      58.0000,      36.0000,       5.0000
    1879,      58.0000,      38.0000,       0.0000
    1880,      58.0000,      38.0000,       2.5000
    1881,      58.0000,      38.0000,       5.0000
    1882,      58.0000,      40.0000,       0.0000
    1883,      58.0000,      40.0000,       2.5000
    1884,      58.0000,      40.0000,       5.0000
    1885,      58.0000,      42.0000,       0.0000
    1886,      58.0000,      42.0000,       2.5000
    1887,      58.0000,      42.0000,       5.0000
    1888,      58.0000,      44.0000,       0.0000
    1889,      58.0000,      44.0000,       2.5000
    1890,      58.0000,      44.0000,       5.0000
    1891,      58.0000,      56.0000,       0.0000
    1892,      58.0000,      56.0000,       2.5000
    1893,      58.0000,      56.0000,       5.0000
    1894,      58.0000,      58.0000,       0.0000
    1895,      58.0000,      58.0000,       2.5000
    1896,      58.0000,      58.0000,       5.0000
    1897,      58.0000,      60.0000,       0.0000
    1898,      58.0000,      60.0000,       2.5000
    1899,      58.0000,      60.0000,       5.0000
    1900,      58.0000,      62.0000,       0.0000
    1901,      58.0000,      62.0000,       2.5000
    1902,      58.0000,      62.0000,       5.0000
    1903,      58.0000,      64.0000,       0.0000
    1904,      58.0000,      64.0000,       2.5000
    1905,      58.0000,      64.0000,       5.0000
    1906,      58.0000,      66.0000,       0.0000
    1907,      58.0000,      66.0000,       2.5000
    1908,      58.0000,      66.0000,       5.0000
    1909,      58.0000,      68.0000,       0.0000
    1910,      58.0000,      68.0000,       2.5000
    1911,      58.0000,      68.0000,       5.0000
    1912,      58.0000,      70.0000,       0.0000
    1913,      58.0000,      70.0000,       2.5000
    1914,      58.0000,      70.0000,       5.0000
    1915,      58.0000,      72.0000,       0.0000
    1916,      58.0000,      72.0000,       2.5000
    1917,      58.0000,      72.0000,       5.0000
    1918,      58.0000,      74.0000,       0.0000
    1919,      58.0000,      74.0000,       2.5000
    1920,      58.0000,      74.0000,       5.0000
    1921,      58.0000,      76.0000,       0.0000
    1922,      58.0000,      76.0000,       2.5000
    1923,      58.0000,      76.0000,       5.0000
    1924,      58.0000,      81.0000,       0.0000
    1925,      58.0000,      81.0000,       2.5000
    1926,      58.0000,      81.0000,       5.0000
    1927,      58.0000,      86.0000,       0.0000
    1928,      58.0000,      86.0000,       2.5000
    1929,      58.0000,      86.0000,       5.0000
    1930,      58.0000,      91.0000,       0.0000
    1931,      58.0000,      91.0000,       2.5000
    1932,      58.0000,      91.0000,       5.0000
    1933,      58.0000,      96.0000,       0.0000
    1934,      58.0000,      96.0000,       2.5000
    1935,      58.0000,      96.0000,       5.0000
    1936,      60.0000,       0.0000,       0.0000
    1937,      60.0000,       0.0000,       2.5000
    1938,      60.0000,       0.0000,       5.0000
    1939,      60.0000,       5.0000,       0.0000
    1940,      60.0000,       5.0000,       2.5000
    1941,      60.0000,       5.0000,       5.0000
    1942,      60.0000,      10.0000,       0.0000
    1943,      60.0000,      10.0000,       2.5000
    1944,      60.0000,      10.0000,       5.0000
    1945,      60.0000,      15.0000,       0.0000
    1946,      60.0000,      15.0000,       2.5000
    1947,      60.0000,      15.0000,       5.0000
    1948,      60.0000,      20.0000,       0.0000
    1949,      60.0000,      20.0000,       2.5000
    1950,      60.0000,      20.0000,       5.0000
    1951,      60.0000,      25.0000,       0.0000
    1952,      60.0000,      25.0000,       2.5000
    1953,      60.0000,      25.0000,       5.0000
    1954,      60.0000,      30.0000,       0.0000
    1955,      60.0000,      30.0000,       2.5000
    1956,      60.0000,      30.0000,       5.0000
    1957,      60.0000,      32.0000,       0.0000
    1958,      60.0000,      32.0000,       2.5000
    1959,      60.0000,      32.0000,       5.0000
    1960,      60.0000,      34.0000,       0.0000
    1961,      60.0000,      34.0000,       2.5000
    1962,      60.0000,      34.0000,       5.0000
    1963,      60.0000,      36.0000,       0.0000
    1964,      60.0000,      36.0000,       2.5000
    1965,      60.0000,      36.0000,       5.0000
    1966,      60.0000,      38.0000,       0.0000
    1967,      60.0000,      38.0000,       2.5000
    1968,      60.0000,      38.0000,       5.0000
    1969,      60.0000,      40.0000,       0.0000
    1970,      60.0000,      40.0000,       2.5000
    1971,      60.0000,      40.0000,       5.0000
    1972,      60.0000,      42.0000,       0.0000
    1973,      60.0000,      42.0000,       2.5000
    1974,      60.0000,      42.0000,       5.0000
    1975,      60.0000,      44.0000,       0.0000
    1976,      60.0000,      44.0000,       2.5000
    1977,      60.0000,      44.0000,       5.0000
    1978,      60.0000,      46.0000,       0.0000
    1979,      60.0000,      46.0000,       2.5000
    1980,      60.0000,      46.0000,       5.0000
    1981,      60.0000,      48.0000,       0.0000
    1982,      60.0000,      48.0000,       2.5000
    1983,      60.0000,      48.0000,       5.0000
    1984,      60.0000,      50.0000,       0.0000
    1985,      60.0000,      50.0000,       2.5000
    1986,      60.0000,      50.0000,       5.0000
    1987,      60.0000,      52.0000,       0.0000
    1988,      60.0000,      52.0000,       2.5000
    1989,      60.0000,      52.0000,       5.0000
    1990,      60.0000,      54.0000,       0.0000
    1991,      60.0000,      54.0000,       2.5000
    1992,      60.0000,      54.0000,       5.0000
    1993,      60.0000,      56.0000,       0.0000
    1994,      60.0000,      56.0000,       2.5000
    1995,      60.0000,      56.0000,       5.0000
    1996,      60.0000,      58.0000,       0.0000
    1997,      60.0000,      58.0000,       2.5000
    1998,      60.0000,      58.0000,       5.0000
    1999,      60.0000,      60.0000,       0.0000
    2000,      60.0000,      60.0000,       2.5000
    2001,      60.0000,      60.0000,       5.0000
    2002,      60.0000,      62.0000,       0.0000
    2003,      60.0000,      62.0000,       2.5000
    2004,      60.0000,      62.0000,       5.0000
    2005,      60.0000,      64.0000,       0.0000
    2006,      60.0000,      64.0000,       2.5000
    2007,      60.0000,      64.0000,       5.0000
    2008,      60.0000,      66.0000,       0.0000
    2009,      60.0000,      66.0000,       2.5000
    2010,      60.0000,      66.0000,       5.0000
    2011,      60.0000,      68.0000,       0.0000
    2012,      60.0000,      68.0000,       2.5000
    2013,      60.0000,      68.0000,       5.0000
    2014,      60.0000,      70.0000,       0.0000
    2015,      60.0000,      70.0000,       2.5000
    2016,      60.0000,      70.0000,       5.0000
    2017,      60.0000,      72.0000,       0.0000
    2018,      60.0000,      72.0000,       2.5000
    2019,      60.0000,      72.0000,       5.0000
    2020,      60.0000,      74.0000,       0.0000
    2021,      60.0000,      74.0000,       2.5000
    2022,      60.0000,      74.0000,       5.0000
    2023,      60.0000,      76.0000,       0.0000
    2024,      60.0000,      76.0000,       2.5000
    2025,      60.0000,      76.0000,       5.0000
    2026,      60.0000,      81.0000,       0.0000
    2027,      60.0000,      81.0000,       2.5000
    2028,      60.0000,      81.0000,       5.0000
    2029,      60.0000,      86.0000,       0.0000
    2030,      60.0000,      86.0000,       2.5000
    2031,      60.0000,      86.0000,       5.0000
    2032,      60.0000,      91.0000,       0.0000
    2033,      60.0000,      91.0000,       2.5000
    2034,      60.0000,      91.0000,       5.0000
    2035,      60.0000,      96.0000,       0.0000
    2036,      60.0000,      96.0000,       2.5000
    2037,      60.0000,      96.0000,       5.0000
    2038,      62.0000,       0.0000,       0.0000
    2039,      62.0000,       0.0000,       2.5000
    2040,      62.0000,       0.0000,       5.0000
    2041,      62.0000,       5.0000,       0.0000
    2042,      62.0000,       5.0000,       2.5000
    2043,      62.0000,       5.0000,       5.0000
    2044,      62.0000,      10.0000,       0.0000
    2045,      62.0000,      10.0000,       2.5000
    2046,      62.0000,      10.0000,       5.0000
    2047,      62.0000,      15.0000,       0.0000
    2048,      62.0000,      15.0000,       2.5000
    2049,      62.0000,      15.0000,       5.0000
    2050,      62.0000,      20.0000,       0.0000
    2051,      62.0000,      20.0000,       2.5000
    2052,      62.0000,      20.0000,       5.0000
    2053,      62.0000,      25.0000,       0.0000
    2054,      62.0000,      25.0000,       2.5000
    2055,      62.0000,      25.0000,       5.0000
    2056,      62.0000,      30.0000,       0.0000
    2057,      62.0000,      30.0000,       2.5000
    2058,      62.0000,      30.0000,       5.0000
    2059,      62.0000,      32.0000,       0.0000
    2060,      62.0000,      32.0000,       2.5000
    2061,      62.0000,      32.0000,       5.0000
    2062,      62.0000,      34.0000,       0.0000
    2063,      62.0000,      34.0000,       2.5000
    2064,      62.0000,      34.0000,       5.0000
    2065,      62.0000,      36.0000,       0.0000
    2066,      62.0000,      36.0000,       2.5000
    2067,      62.0000,      36.0000,       5.0000
    2068,      62.0000,      38.0000,       0.0000
    2069,      62.0000,      38.0000,       2.5000
    2070,      62.0000,      38.0000,       5.0000
    2071,      62.0000,      40.0000,       0.0000
    2072,      62.0000,      40.0000,       2.5000
    2073,      62.0000,      40.0000,       5.0000
    2074,      62.0000,      42.0000,       0.0000
    2075,      62.0000,      42.0000,       2.5000
    2076,      62.0000,      42.0000,       5.0000
    2077,      62.0000,      44.0000,       0.0000
    2078,      62.0000,      44.0000,       2.5000
    2079,      62.0000,      44.0000,       5.0000
    2080,      62.0000,      46.0000,       0.0000
    2081,      62.0000,      46.0000,       2.5000
    2082,      62.0000,      46.0000,       5.0000
    2083,      62.0000,      48.0000,       0.0000
    2084,      62.0000,      48.0000,       2.5000
    2085,      62.0000,      48.0000,       5.0000
    2086,      62.0000,      50.0000,       0.0000
    2087,      62.0000,      50.0000,       2.5000
    2088,      62.0000,      50.0000,       5.0000
    2089,      62.0000,      52.0000,       0.0000
    2090,      62.0000,      52.0000,       2.5000
    2091,      62.0000,      52.0000,       5.0000
    2092,      62.0000,      54.0000,       0.0000
    2093,      62.0000,      54.0000,       2.5000
    2094,      62.0000,      54.0000,       5.0000
    2095,      62.0000,      56.0000,       0.0000
    2096,      62.0000,      56.0000,       2.5000
    2097,      62.0000,      56.0000,       5.0000
    2098,      62.0000,      58.0000,       0.0000
    2099,      62.0000,      58.0000,       2.5000
    2100,      62.0000,      58.0000,       5.0000
    2101,      62.0000,      60.0000,       0.0000
    2102,      62.0000,      60.0000,       2.5000
    2103,      62.0000,      60.0000,       5.0000
    2104,      62.0000,      62.0000,       0.0000
    2105,      62.0000,      62.0000,       2.5000
    2106,      62.0000,      62.0000,       5.0000
    2107,      62.0000,      64.0000,       0.0000
    2108,      62.0000,      64.0000,       2.5000
    2109,      62.0000,      64.0000,       5.0000
    2110,      62.0000,      66.0000,       0.0000
    2111,      62.0000,      66.0000,       2.5000
    2112,      62.0000,      66.0000,       5.0000
    2113,      62.0000,      68.0000,       0.0000
    2114,      62.0000,      68.0000,       2.5000
    2115,      62.0000,      68.0000,       5.0000
    2116,      62.0000,      70.0000,       0.0000
    2117,      62.0000,      70.0000,       2.5000
    2118,      62.0000,      70.0000,       5.0000
    2119,      62.0000,      72.0000,       0.0000
    2120,      62.0000,      72.0000,       2.5000
    2121,      62.0000,      72.0000,       5.0000
    2122,      62.0000,      74.0000,       0.0000
    2123,      62.0000,      74.0000,       2.5000
    2124,      62.0000,      74.0000,       5.0000
    2125,      62.0000,      76.0000,       0.0000
    2126,      62.0000,      76.0000,       2.5000
    2127,      62.0000,      76.0000,       5.0000
    2128,      62.0000,      81.0000,       0.0000
    2129,      62.0000,      81.0000,       2.5000
    2130,      62.0000,      81.0000,       5.0000
    2131,      62.0000,      86.0000,       0.0000
    2132,      62.0000,      86.0000,       2.5000
    2133,      62.0000,      86.0000,       5.0000
    2134,      62.0000,      91.0000,       0.0000
    2135,      62.0000,      91.0000,       2.5000
    2136,      62.0000,      91.0000,       5.0000
    2137,      62.0000,      96.0000,       0.0000
    2138,      62.0000,      96.0000,       2.5000
    2139,      62.0000,      96.0000,       5.0000
    2140,      64.0000,       0.0000,       0.0000
    2141,      64.0000,       0.0000,       2.5000
    2142,      64.0000,       0.0000,       5.0000
    2143,      64.0000,       5.0000,       0.0000
    2144,      64.0000,       5.0000,       2.5000
    2145,      64.0000,       5.0000,       5.0000
    2146,      64.0000,      10.0000,       0.0000
    2147,      64.0000,      10.0000,       2.5000
    2148,      64.0000,      10.0000,       5.0000
    2149,      64.0000,      15.0000,       0.0000
    2150,      64.0000,      15.0000,       2.5000
    2151,      64.0000,      15.0000,       5.0000
    2152,      64.0000,      20.0000,       0.0000
    2153,      64.0000,      20.0000,       2.5000
    2154,      64.0000,      20.0000,       5.0000
    2155,      64.0000,      25.0000,       0.0000
    2156,      64.0000,      25.0000,       2.5000
    2157,      64.0000,      25.0000,       5.0000
    2158,      64.0000,      30.0000,       0.0000
    2159,      64.0000,      30.0000,       2.5000
    2160,      64.0000,      30.0000,       5.0000
    2161,      64.0000,      32.0000,       0.0000
    2162,      64.0000,      32.0000,       2.5000
    2163,      64.0000,      32.0000,       5.0000
    2164,      64.0000,      34.0000,       0.0000
    2165,      64.0000,      34.0000,       2.5000
    2166,      64.0000,      34.0000,       5.0000
    2167,      64.0000,      36.0000,       0.0000
    2168,      64.0000,      36.0000,       2.5000
    2169,      64.0000,      36.0000,       5.0000
    2170,      64.0000,      38.0000,       0.0000
    2171,      64.0000,      38.0000,       2.5000
    2172,      64.0000,      38.0000,       5.0000
    2173,      64.0000,      40.0000,       0.0000
    2174,      64.0000,      40.0000,       2.5000
    2175,      64.0000,      40.0000,       5.0000
    2176,      64.0000,      42.0000,       0.0000
    2177,      64.0000,      42.0000,       2.5000
    2178,      64.0000,      42.0000,       5.0000
    2179,      64.0000,      44.0000,       0.0000
    2180,      64.0000,      44.0000,       2.5000
    2181,      64.0000,      44.0000,       5.0000
    2182,      64.0000,      46.0000,       0.0000
    2183,      64.0000,      46.0000,       2.5000
    2184,      64.0000,      46.0000,       5.0000
    2185,      64.0000,      48.0000,       0.0000
    2186,      64.0000,      48.0000,       2.5000
    2187,      64.0000,      48.0000,       5.0000
    2188,      64.0000,      50.0000,       0.0000
    2189,      64.0000,      50.0000,       2.5000
    2190,      64.0000,      50.0000,       5.0000
    2191,      64.0000,      52.0000,       0.0000
    2192,      64.0000,      52.0000,       2.5000
    2193,      64.0000,      52.0000,       5.0000
    2194,      64.0000,      54.0000,       0.0000
    2195,      64.0000,      54.0000,       2.5000
    2196,      64.0000,      54.0000,       5.0000
    2197,      64.0000,      56.0000,       0.0000
    2198,      64.0000,      56.0000,       2.5000
    2199,      64.0000,      56.0000,       5.0000
    2200,      64.0000,      58.0000,       0.0000
    2201,      64.0000,      58.0000,       2.5000
    2202,      64.0000,      58.0000,       5.0000
    2203,      64.0000,      60.0000,       0.0000
    2204,      64.0000,      60.0000,       2.5000
    2205,      64.0000,      60.0000,       5.0000
    2206,      64.0000,      62.0000,       0.0000
    2207,      64.0000,      62.0000,       2.5000
    2208,      64.0000,      62.0000,       5.0000
    2209,      64.0000,      64.0000,       0.0000
    2210,      64.0000,      64.0000,       2.5000
    2211,      64.0000,      64.0000,       5.0000
    2212,      64.0000,      66.0000,       0.0000
    2213,      64.0000,      66.0000,       2.5000
    2214,      64.0000,      66.0000,       5.0000
    2215,      64.0000,      68.0000,       0.0000
    2216,      64.0000,      68.0000,       2.5000
    2217,      64.0000,      68.0000,       5.0000
    2218,      64.0000,      70.0000,       0.0000
    2219,      64.0000,      70.0000,       2.5000
    2220,      64.0000,      70.0000,       5.0000
    2221,      64.0000,      72.0000,       0.0000
    2222,      64.0000,      72.0000,       2.5000
    2223,      64.0000,      72.0000,       5.0000
    2224,      64.0000,      74.0000,       0.0000
    2225,      64.0000,      74.0000,       2.5000
    2226,      64.0000,      74.0000,       5.0000
    2227,      64.0000,      76.0000,       0.0000
    2228,      64.0000,      76.0000,       2.5000
    2229,      64.0000,      76.0000,       5.0000
    2230,      64.0000,      81.0000,       0.0000
    2231,      64.0000,      81.0000,       2.5000
    2232,      64.0000,      81.0000,       5.0000
    2233,      64.0000,      86.0000,       0.0000
    2234,      64.0000,      86.0000,       2.5000
    2235,      64.0000,      86.0000,       5.0000
    2236,      64.0000,      91.0000,       0.0000
    2237,      64.0000,      91.0000,       2.5000
    2238,      64.0000,      91.0000,       5.0000
    2239,      64.0000,      96.0000,       0.0000
    2240,      64.0000,      96.0000,       2.5000
    2241,      64.0000,      96.0000,       5.0000
    2242,      66.0000,       0.0000,       0.0000
    2243,      66.0000,       0.0000,       2.5000
    2244,      66.0000,       0.0000,       5.0000
    2245,      66.0000,       5.0000,       0.0000
    2246,      66.0000,       5.0000,       2.5000
    2247,      66.0000,       5.0000,       5.0000
    2248,      66.0000,      10.0000,       0.0000
    2249,      66.0000,      10.0000,       2.5000
    2250,      66.0000,      10.0000,       5.0000
    2251,      66.0000,      15.0000,       0.0000
    2252,      66.0000,      15.0000,       2.5000
    2253,      66.0000,      15.0000,       5.0000
    2254,      66.0000,      20.0000,       0.0000
    2255,      66.0000,      20.0000,       2.5000
    2256,      66.0000,      20.0000,       5.0000
    2257,      66.0000,      25.0000,       0.0000
    2258,      66.0000,      25.0000,       2.5000
    2259,      66.0000,      25.0000,       5.0000
    2260,      66.0000,      30.0000,       0.0000
    2261,      66.0000,      30.0000,       2.5000
    2262,      66.0000,      30.0000,       5.0000
    2263,      66.0000,      32.0000,       0.0000
    2264,      66.0000,      32.0000,       2.5000
    2265,      66.0000,      32.0000,       5.0000
    2266,      66.0000,      34.0000,       0.0000
    2267,      66.0000,      34.0000,       2.5000
    2268,      66.0000,      34.0000,       5.0000
    2269,      66.0000,      36.0000,       0.0000
    2270,      66.0000,      36.0000,       2.5000
    2271,      66.0000,      36.0000,       5.0000
    2272,      66.0000,      38.0000,       0.0000
    2273,      66.0000,      38.0000,       2.5000
    2274,      66.0000,      38.0000,       5.0000
    2275,      66.0000,      40.0000,       0.0000
    2276,      66.0000,      40.0000,       2.5000
    2277,      66.0000,      40.0000,       5.0000
    2278,      66.0000,      42.0000,       0.0000
    2279,      66.0000,      42.0000,       2.5000
    2280,      66.0000,      42.0000,       5.0000
    2281,      66.0000,      44.0000,       0.0000
    2282,      66.0000,      44.0000,       2.5000
    2283,      66.0000,      44.0000,       5.0000
    2284,      66.0000,      46.0000,       0.0000
    2285,      66.0000,      46.0000,       2.5000
    2286,      66.0000,      46.0000,       5.0000
    2287,      66.0000,      48.0000,       0.0000
    2288,      66.0000,      48.0000,       2.5000
    2289,      66.0000,      48.0000,       5.0000
    2290,      66.0000,      50.0000,       0.0000
    2291,      66.0000,      50.0000,       2.5000
    2292,      66.0000,      50.0000,       5.0000
    2293,      66.0000,      52.0000,       0.0000
    2294,      66.0000,      52.0000,       2.5000
    2295,      66.0000,      52.0000,       5.0000
    2296,      66.0000,      54.0000,       0.0000
    2297,      66.0000,      54.0000,       2.5000
    2298,      66.0000,      54.0000,       5.0000
    2299,      66.0000,      56.0000,       0.0000
    2300,      66.0000,      56.0000,       2.5000
    2301,      66.0000,      56.0000,       5.0000
    2302,      66.0000,      58.0000,       0.0000
    2303,      66.0000,      58.0000,       2.5000
    2304,      66.0000,      58.0000,       5.0000
    2305,      66.0000,      60.0000,       0.0000
    2306,      66.0000,      60.0000,       2.5000
    2307,      66.0000,      60.0000,       5.0000
    2308,      66.0000,      62.0000,       0.0000
    2309,      66.0000,      62.0000,       2.5000
    2310,      66.0000,      62.0000,       5.0000
    2311,      66.0000,      64.0000,       0.0000
    2312,      66.0000,      64.0000,       2.5000
    2313,      66.0000,      64.0000,       5.0000
    2314,      66.0000,      66.0000,       0.0000
    2315,      66.0000,      66.0000,       2.5000
    2316,      66.0000,      66.0000,       5.0000
    2317,      66.0000,      68.0000,       0.0000
    2318,      66.0000,      68.0000,       2.5000
    2319,      66.0000,      68.0000,       5.0000
    2320,      66.0000,      70.0000,       0.0000
    2321,      66.0000,      70.0000,       2.5000
    2322,      66.0000,      70.0000,       5.0000
    2323,      66.0000,      72.0000,       0.0000
    2324,      66.0000,      72.0000,       2.5000
    2325,      66.0000,      72.0000,       5.0000
    2326,      66.0000,      74.0000,       0.0000
    2327,      66.0000,      74.0000,       2.5000
    2328,      66.0000,      74.0000,       5.0000
    2329,      66.0000,      76.0000,       0.0000
    2330,      66.0000,      76.0000,       2.5000
    2331,      66.0000,      76.0000,       5.0000
    2332,      66.0000,      81.0000,       0.0000
    2333,      66.0000,      81.0000,       2.5000
    2334,      66.0000,      81.0000,       5.0000
    2335,      66.0000,      86.0000,       0.0000
    2336,      66.0000,      86.0000,       2.5000
    2337,      66.0000,      86.0000,       5.0000
    2338,      66.0000,      91.0000,       0.0000
    2339,      66.0000,      91.0000,       2.5000
    2340,      66.0000,      91.0000,       5.0000
    2341,      66.0000,      96.0000,       0.0000
    2342,      66.0000,      96.0000,       2.5000
    2343,      66.0000,      96.0000,       5.0000
    2344,      68.0000,       0.0000,       0.0000
    2345,      68.0000,       0.0000,       2.5000
    2346,      68.0000,       0.0000,       5.0000
    2347,      68.0000,       5.0000,       0.0000
    2348,      68.0000,       5.0000,       2.5000
    2349,      68.0000,       5.0000,       5.0000
    2350,      68.0000,      10.0000,       0.0000
    2351,      68.0000,      10.0000,       2.5000
    2352,      68.0000,      10.0000,       5.0000
    2353,      68.0000,      15.0000,       0.0000
    2354,      68.0000,      15.0000,       2.5000
    2355,      68.0000,      15.0000,       5.0000
    2356,      68.0000,      20.0000,       0.0000
    2357,      68.0000,      20.0000,       2.5000
    2358,      68.0000,      20.0000,       5.0000
    2359,      68.0000,      25.0000,       0.0000
    2360,      68.0000,      25.0000,       2.5000
    2361,      68.0000,      25.0000,       5.0000
    2362,      68.0000,      30.0000,       0.0000
    2363,      68.0000,      30.0000,       2.5000
    2364,      68.0000,      30.0000,       5.0000
    2365,      68.0000,      32.0000,       0.0000
    2366,      68.0000,      32.0000,       2.5000
    2367,      68.0000,      32.0000,       5.0000
    2368,      68.0000,      34.0000,       0.0000
    2369,      68.0000,      34.0000,       2.5000
    2370,      68.0000,      34.0000,       5.0000
    2371,      68.0000,      36.0000,       0.0000
    2372,      68.0000,      36.0000,       2.5000
    2373,      68.0000,      36.0000,       5.0000
    2374,      68.0000,      38.0000,       0.0000
    2375,      68.0000,      38.0000,       2.5000
    2376,      68.0000,      38.0000,       5.0000
    2377,      68.0000,      40.0000,       0.0000
    2378,      68.0000,      40.0000,       2.5000
    2379,      68.0000,      40.0000,       5.0000
    2380,      68.0000,      42.0000,       0.0000
    2381,      68.0000,      42.0000,       2.5000
    2382,      68.0000,      42.0000,       5.0000
    2383,      68.0000,      44.0000,       0.0000
    2384,      68.0000,      44.0000,       2.5000
    2385,      68.0000,      44.0000,       5.0000
    2386,      68.0000,      46.0000,       0.0000
    2387,      68.0000,      46.0000,       2.5000
    2388,      68.0000,      46.0000,       5.0000
    2389,      68.0000,      48.0000,       0.0000
    2390,      68.0000,      48.0000,       2.5000
    2391,      68.0000,      48.0000,       5.0000
    2392,      68.0000,      50.0000,       0.0000
    2393,      68.0000,      50.0000,       2.5000
    2394,      68.0000,      50.0000,       5.0000
    2395,      68.0000,      52.0000,       0.0000
    2396,      68.0000,      52.0000,       2.5000
    2397,      68.0000,      52.0000,       5.0000
    2398,      68.0000,      54.0000,       0.0000
    2399,      68.0000,      54.0000,       2.5000
    2400,      68.0000,      54.0000,       5.0000
    2401,      68.0000,      56.0000,       0.0000
    2402,      68.0000,      56.0000,       2.5000
    2403,      68.0000,      56.0000,       5.0000
    2404,      68.0000,      58.0000,       0.0000
    2405,      68.0000,      58.0000,       2.5000
    2406,      68.0000,      58.0000,       5.0000
    2407,      68.0000,      60.0000,       0.0000
    2408,      68.0000,      60.0000,       2.5000
    2409,      68.0000,      60.0000,       5.0000
    2410,      68.0000,      62.0000,       0.0000
    2411,      68.0000,      62.0000,       2.5000
    2412,      68.0000,      62.0000,       5.0000
    2413,      68.0000,      64.0000,       0.0000
    2414,      68.0000,      64.0000,       2.5000
    2415,      68.0000,      64.0000,       5.0000
    2416,      68.0000,      66.0000,       0.0000
    2417,      68.0000,      66.0000,       2.5000
    2418,      68.0000,      66.0000,       5.0000
    2419,      68.0000,      68.0000,       0.0000
    2420,      68.0000,      68.0000,       2.5000
    2421,      68.0000,      68.0000,       5.0000
    2422,      68.0000,      70.0000,       0.0000
    2423,      68.0000,      70.0000,       2.5000
    2424,      68.0000,      70.0000,       5.0000
    2425,      68.0000,      72.0000,       0.0000
    2426,      68.0000,      72.0000,       2.5000
    2427,      68.0000,      72.0000,       5.0000
    2428,      68.0000,      74.0000,       0.0000
    2429,      68.0000,      74.0000,       2.5000
    2430,      68.0000,      74.0000,       5.0000
    2431,      68.0000,      76.0000,       0.0000
    2432,      68.0000,      76.0000,       2.5000
    2433,      68.0000,      76.0000,       5.0000
    2434,      68.0000,      81.0000,       0.0000
    2435,      68.0000,      81.0000,       2.5000
    2436,      68.0000,      81.0000,       5.0000
    2437,      68.0000,      86.0000,       0.0000
    2438,      68.0000,      86.0000,       2.5000
    2439,      68.0000,      86.0000,       5.0000
    2440,      68.0000,      91.0000,       0.0000
    2441,      68.0000,      91.0000,       2.5000
    2442,      68.0000,      91.0000,       5.0000
    2443,      68.0000,      96.0000,       0.0000
    2444,      68.0000,      96.0000,       2.5000
    2445,      68.0000,      96.0000,       5.0000
    2446,      70.0000,       0.0000,       0.0000
    2447,      70.0000,       0.0000,       2.5000
    2448,      70.0000,       0.0000,       5.0000
    2449,      70.0000,       5.0000,       0.0000
    2450,      70.0000,       5.0000,       2.5000
    2451,      70.0000,       5.0000,       5.0000
    2452,      70.0000,      10.0000,       0.0000
    2453,      70.0000,      10.0000,       2.5000
    2454,      70.0000,      10.0000,       5.0000
    2455,      70.0000,      15.0000,       0.0000
    2456,      70.0000,      15.0000,       2.5000
    2457,      70.0000,      15.0000,       5.0000
    2458,      70.0000,      20.0000,       0.0000
    2459,      70.0000,      20.0000,       2.5000
    2460,      70.0000,      20.0000,       5.0000
    2461,      70.0000,      25.0000,       0.0000
    2462,      70.0000,      25.0000,       2.5000
    2463,      70.0000,      25.0000,       5.0000
    2464,      70.0000,      30.0000,       0.0000
    2465,      70.0000,      30.0000,       2.5000
    2466,      70.0000,      30.0000,       5.0000
    2467,      70.0000,      32.0000,       0.0000
    2468,      70.0000,      32.0000,       2.5000
    2469,      70.0000,      32.0000,       5.0000
    2470,      70.0000,      34.0000,       0.0000
    2471,      70.0000,      34.0000,       2.5000
    2472,      70.0000,      34.0000,       5.0000
    2473,      70.0000,      36.0000,       0.0000
    2474,      70.0000,      36.0000,       2.5000
    2475,      70.0000,      36.0000,       5.0000
    2476,      70.0000,      38.0000,       0.0000
    2477,      70.0000,      38.0000,       2.5000
    2478,      70.0000,      38.0000,       5.0000
    2479,      70.0000,      40.0000,       0.0000
    2480,      70.0000,      40.0000,       2.5000
    2481,      70.0000,      40.0000,       5.0000
    2482,      70.0000,      42.0000,       0.0000
    2483,      70.0000,      42.0000,       2.5000
    2484,      70.0000,      42.0000,       5.0000
    2485,      70.0000,      44.0000,       0.0000
    2486,      70.0000,      44.0000,       2.5000
    2487,      70.0000,      44.0000,       5.0000
    2488,      70.0000,      46.0000,       0.0000
    2489,      70.0000,      46.0000,       2.5000
    2490,      70.0000,      46.0000,       5.0000
    2491,      70.0000,      48.0000,       0.0000
    2492,      70.0000,      48.0000,       2.5000
    2493,      70.0000,      48.0000,       5.0000
    2494,      70.0000,      50.0000,       0.0000
    2495,      70.0000,      50.0000,       2.5000
    2496,      70.0000,      50.0000,       5.0000
    2497,      70.0000,      52.0000,       0.0000
    2498,      70.0000,      52.0000,       2.5000
    2499,      70.0000,      52.0000,       5.0000
    2500,      70.0000,      54.0000,       0.0000
    2501,      70.0000,      54.0000,       2.5000
    2502,      70.0000,      54.0000,       5.0000
    2503,      70.0000,      56.0000,       0.0000
    2504,      70.0000,      56.0000,       2.5000
    2505,      70.0000,      56.0000,       5.0000
    2506,      70.0000,      58.0000,       0.0000
    2507,      70.0000,      58.0000,       2.5000
    2508,      70.0000,      58.0000,       5.0000
    2509,      70.0000,      60.0000,       0.0000
    2510,      70.0000,      60.0000,       2.5000
    2511,      70.0000,      60.0000,       5.0000
    2512,      70.0000,      62.0000,       0.0000
    2513,      70.0000,      62.0000,       2.5000
    2514,      70.0000,      62.0000,       5.0000
    2515,      70.0000,      64.0000,       0.0000
    2516,      70.0000,      64.0000,       2.5000
    2517,      70.0000,      64.0000,       5.0000
    2518,      70.0000,      66.0000,       0.0000
    2519,      70.0000,      66.0000,       2.5000
    2520,      70.0000,      66.0000,       5.0000
    2521,      70.0000,      68.0000,       0.0000
    2522,      70.0000,      68.0000,       2.5000
    2523,      70.0000,      68.0000,       5.0000
    2524,      70.0000,      70.0000,       0.0000
    2525,      70.0000,      70.0000,       2.5000
    2526,      70.0000,      70.0000,       5.0000
    2527,      70.0000,      72.0000,       0.0000
    2528,      70.0000,      72.0000,       2.5000
    2529,      70.0000,      72.0000,       5.0000
    2530,      70.0000,      74.0000,       0.0000
    2531,      70.0000,      74.0000,       2.5000
    2532,      70.0000,      74.0000,       5.0000
    2533,      70.0000,      76.0000,       0.0000
    2534,      70.0000,      76.0000,       2.5000
    2535,      70.0000,      76.0000,       5.0000
    2536,      70.0000,      81.0000,       0.0000
    2537,      70.0000,      81.0000,       2.5000
    2538,      70.0000,      81.0000,       5.0000
    2539,      70.0000,      86.0000,       0.0000
    2540,      70.0000,      86.0000,       2.5000
    2541,      70.0000,      86.0000,       5.0000
    2542,      70.0000,      91.0000,       0.0000
    2543,      70.0000,      91.0000,       2.5000
    2544,      70.0000,      91.0000,       5.0000
    2545,      70.0000,      96.0000,       0.0000
    2546,      70.0000,      96.0000,       2.5000
    2547,      70.0000,      96.0000,       5.0000
    2548,      72.0000,       0.0000,       0.0000
    2549,      72.0000,       0.0000,       2.5000
    2550,      72.0000,       0.0000,       5.0000
    2551,      72.0000,       5.0000,       0.0000
    2552,      72.0000,       5.0000,       2.5000
    2553,      72.0000,       5.0000,       5.0000
    2554,      72.0000,      10.0000,       0.0000
    2555,      72.0000,      10.0000,       2.5000
    2556,      72.0000,      10.0000,       5.0000
    2557,      72.0000,      15.0000,       0.0000
    2558,      72.0000,      15.0000,       2.5000
    2559,      72.0000,      15.0000,       5.0000
    2560,      72.0000,      20.0000,       0.0000
    2561,      72.0000,      20.0000,       2.5000
    2562,      72.0000,      20.0000,       5.0000
    2563,      72.0000,      25.0000,       0.0000
    2564,      72.0000,      25.0000,       2.5000
    2565,      72.0000,      25.0000,       5.0000
    2566,      72.0000,      30.0000,       0.0000
    2567,      72.0000,      30.0000,       2.5000
    2568,      72.0000,      30.0000,       5.0000
    2569,      72.0000,      32.0000,       0.0000
    2570,      72.0000,      32.0000,       2.5000
    2571,      72.0000,      32.0000,       5.0000
    2572,      72.0000,      34.0000,       0.0000
    2573,      72.0000,      34.0000,       2.5000
    2574,      72.0000,      34.0000,       5.0000
    2575,      72.0000,      36.0000,       0.0000
    2576,      72.0000,      36.0000,       2.5000
    2577,      72.0000,      36.0000,       5.0000
    2578,      72.0000,      38.0000,       0.0000
    2579,      72.0000,      38.0000,       2.5000
    2580,      72.0000,      38.0000,       5.0000
    2581,      72.0000,      40.0000,       0.0000
    2582,      72.0000,      40.0000,       2.5000
    2583,      72.0000,      40.0000,       5.0000
    2584,      72.0000,      42.0000,       0.0000
    2585,      72.0000,      42.0000,       2.5000
    2586,      72.0000,      42.0000,       5.0000
    2587,      72.0000,      44.0000,       0.0000
    2588,      72.0000,      44.0000,       2.5000
    2589,      72.0000,      44.0000,       5.0000
    2590,      72.0000,      46.0000,       0.0000
    2591,      72.0000,      46.0000,       2.5000
    2592,      72.0000,      46.0000,       5.0000
    2593,      72.0000,      48.0000,       0.0000
    2594,      72.0000,      48.0000,       2.5000
    2595,      72.0000,      48.0000,       5.0000
    2596,      72.0000,      50.0000,       0.0000
    2597,      72.0000,      50.0000,       2.5000
    2598,      72.0000,      50.0000,       5.0000
    2599,      72.0000,      52.0000,       0.0000
    2600,      72.0000,      52.0000,       2.5000
    2601,      72.0000,      52.0000,       5.0000
    2602,      72.0000,      54.0000,       0.0000
    2603,      72.0000,      54.0000,       2.5000
    2604,      72.0000,      54.0000,       5.0000
    2605,      72.0000,      56.0000,       0.0000
    2606,      72.0000,      56.0000,       2.5000
    2607,      72.0000,      56.0000,       5.0000
    2608,      72.0000,      58.0000,       0.0000
    2609,      72.0000,      58.0000,       2.5000
    2610,      72.0000,      58.0000,       5.0000
    2611,      72.0000,      60.0000,       0.0000
    2612,      72.0000,      60.0000,       2.5000
    2613,      72.0000,      60.0000,       5.0000
    2614,      72.0000,      62.0000,       0.0000
    2615,      72.0000,      62.0000,       2.5000
    2616,      72.0000,      62.0000,       5.0000
    2617,      72.0000,      64.0000,       0.0000
    2618,      72.0000,      64.0000,       2.5000
    2619,      72.0000,      64.0000,       5.0000
    2620,      72.0000,      66.0000,       0.0000
    2621,      72.0000,      66.0000,       2.5000
    2622,      72.0000,      66.0000,       5.0000
    2623,      72.0000,      68.0000,       0.0000
    2624,      72.0000,      68.0000,       2.5000
    2625,      72.0000,      68.0000,       5.0000
    2626,      72.0000,      70.0000,       0.0000
    2627,      72.0000,      70.0000,       2.5000
    2628,      72.0000,      70.0000,       5.0000
    2629,      72.0000,      72.0000,       0.0000
    2630,      72.0000,      72.0000,       2.5000
    2631,      72.0000,      72.0000,       5.0000
    2632,      72.0000,      74.0000,       0.0000
    2633,      72.0000,      74.0000,       2.5000
    2634,      72.0000,      74.0000,       5.0000
    2635,      72.0000,      76.0000,       0.0000
    2636,      72.0000,      76.0000,       2.5000
    2637,      72.0000,      76.0000,       5.0000
    2638,      72.0000,      81.0000,       0.0000
    2639,      72.0000,      81.0000,       2.5000
    2640,      72.0000,      81.0000,       5.0000
    2641,      72.0000,      86.0000,       0.0000
    2642,      72.0000,      86.0000,       2.5000
    2643,      72.0000,      86.0000,       5.0000
    2644,      72.0000,      91.0000,       0.0000
    2645,      72.0000,      91.0000,       2.5000
    2646,      72.0000,      91.0000,       5.0000
    2647,      72.0000,      96.0000,       0.0000
    2648,      72.0000,      96.0000,       2.5000
    2649,      72.0000,      96.0000,       5.0000
    2650,      74.0000,       0.0000,       0.0000
    2651,      74.0000,       0.0000,       2.5000
    2652,      74.0000,       0.0000,       5.0000
    2653,      74.0000,       5.0000,       0.0000
    2654,      74.0000,       5.0000,       2.5000
    2655,      74.0000,       5.0000,       5.0000
    2656,      74.0000,      10.0000,       0.0000
    2657,      74.0000,      10.0000,       2.5000
    2658,      74.0000,      10.0000,       5.0000
    2659,      74.0000,      15.0000,       0.0000
    2660,      74.0000,      15.0000,       2.5000
    2661,      74.0000,      15.0000,       5.0000
    2662,      74.0000,      20.0000,       0.0000
    2663,      74.0000,      20.0000,       2.5000
    2664,      74.0000,      20.0000,       5.0000
    2665,      74.0000,      25.0000,       0.0000
    2666,      74.0000,      25.0000,       2.5000
    2667,      74.0000,      25.0000,       5.0000
    2668,      74.0000,      30.0000,       0.0000
    2669,      74.0000,      30.0000,       2.5000
    2670,      74.0000,      30.0000,       5.0000
    2671,      74.0000,      32.0000,       0.0000
    2672,      74.0000,      32.0000,       2.5000
    2673,      74.0000,      32.0000,       5.0000
    2674,      74.0000,      34.0000,       0.0000
    2675,      74.0000,      34.0000,       2.5000
    2676,      74.0000,      34.0000,       5.0000
    2677,      74.0000,      36.0000,       0.0000
    2678,      74.0000,      36.0000,       2.5000
    2679,      74.0000,      36.0000,       5.0000
    2680,      74.0000,      38.0000,       0.0000
    2681,      74.0000,      38.0000,       2.5000
    2682,      74.0000,      38.0000,       5.0000
    2683,      74.0000,      40.0000,       0.0000
    2684,      74.0000,      40.0000,       2.5000
    2685,      74.0000,      40.0000,       5.0000
    2686,      74.0000,      42.0000,       0.0000
    2687,      74.0000,      42.0000,       2.5000
    2688,      74.0000,      42.0000,       5.0000
    2689,      74.0000,      44.0000,       0.0000
    2690,      74.0000,      44.0000,       2.5000
    2691,      74.0000,      44.0000,       5.0000
    2692,      74.0000,      46.0000,       0.0000
    2693,      74.0000,      46.0000,       2.5000
    2694,      74.0000,      46.0000,       5.0000
    2695,      74.0000,      48.0000,       0.0000
    2696,      74.0000,      48.0000,       2.5000
    2697,      74.0000,      48.0000,       5.0000
    2698,      74.0000,      50.0000,       0.0000
    2699,      74.0000,      50.0000,       2.5000
    2700,      74.0000,      50.0000,       5.0000
    2701,      74.0000,      52.0000,       0.0000
    2702,      74.0000,      52.0000,       2.5000
    2703,      74.0000,      52.0000,       5.0000
    2704,      74.0000,      54.0000,       0.0000
    2705,      74.0000,      54.0000,       2.5000
    2706,      74.0000,      54.0000,       5.0000
    2707,      74.0000,      56.0000,       0.0000
    2708,      74.0000,      56.0000,       2.5000
    2709,      74.0000,      56.0000,       5.0000
    2710,      74.0000,      58.0000,       0.0000
    2711,      74.0000,      58.0000,       2.5000
    2712,      74.0000,      58.0000,       5.0000
    2713,      74.0000,      60.0000,       0.0000
    2714,      74.0000,      60.0000,       2.5000
    2715,      74.0000,      60.0000,       5.0000
    2716,      74.0000,      62.0000,       0.0000
    2717,      74.0000,      62.0000,       2.5000
    2718,      74.0000,      62.0000,       5.0000
    2719,      74.0000,      64.0000,       0.0000
    2720,      74.0000,      64.0000,       2.5000
    2721,      74.0000,      64.0000,       5.0000
    2722,      74.0000,      66.0000,       0.0000
    2723,      74.0000,      66.0000,       2.5000
    2724,      74.0000,      66.0000,       5.0000
    2725,      74.0000,      68.0000,       0.0000
    2726,      74.0000,      68.0000,       2.5000
    2727,      74.0000,      68.0000,       5.0000
    2728,      74.0000,      70.0000,       0.0000
    2729,      74.0000,      70.0000,       2.5000
    2730,      74.0000,      70.0000,       5.0000
    2731,      74.0000,      72.0000,       0.0000
    2732,      74.0000,      72.0000,       2.5000
    2733,      74.0000,      72.0000,       5.0000
    2734,      74.0000,      74.0000,       0.0000
    2735,      74.0000,      74.0000,       2.5000
    2736,      74.0000,      74.0000,       5.0000
    2737,      74.0000,      76.0000,       0.0000
    2738,      74.0000,      76.0000,       2.5000
    2739,      74.0000,      76.0000,       5.0000
    2740,      74.0000,      81.0000,       0.0000
    2741,      74.0000,      81.0000,       2.5000
    2742,      74.0000,      81.0000,       5.0000
    2743,      74.0000,      86.0000,       0.0000
    2744,      74.0000,      86.0000,       2.5000
    2745,      74.0000,      86.0000,       5.0000
    2746,      74.0000,      91.0000,       0.0000
    2747,      74.0000,      91.0000,       2.5000
    2748,      74.0000,      91.0000,       5.0000
    2749,      74.0000,      96.0000,       0.0000
    2750,      74.0000,      96.0000,       2.5000
    2751,      74.0000,      96.0000,       5.0000
    2752,      76.0000,       0.0000,       0.0000
    2753,      76.0000,       0.0000,       2.5000
    2754,      76.0000,       0.0000,       5.0000
    2755,      76.0000,       5.0000,       0.0000
    2756,      76.0000,       5.0000,       2.5000
    2757,      76.0000,       5.0000,       5.0000
    2758,      76.0000,      10.0000,       0.0000
    2759,      76.0000,      10.0000,       2.5000
    2760,      76.0000,      10.0000,       5.0000
    2761,      76.0000,      15.0000,       0.0000
    2762,      76.0000,      15.0000,       2.5000
    2763,      76.0000,      15.0000,       5.0000
    2764,      76.0000,      20.0000,       0.0000
    2765,      76.0000,      20.0000,       2.5000
    2766,      76.0000,      20.0000,       5.0000
    2767,      76.0000,      25.0000,       0.0000
    2768,      76.0000,      25.0000,       2.5000
    2769,      76.0000,      25.0000,       5.0000
    2770,      76.0000,      30.0000,       0.0000
    2771,      76.0000,      30.0000,       2.5000
    2772,      76.0000,      30.0000,       5.0000
    2773,      76.0000,      32.0000,       0.0000
    2774,      76.0000,      32.0000,       2.5000
    2775,      76.0000,      32.0000,       5.0000
    2776,      76.0000,      34.0000,       0.0000
    2777,      76.0000,      34.0000,       2.5000
    2778,      76.0000,      34.0000,       5.0000
    2779,      76.0000,      36.0000,       0.0000
    2780,      76.0000,      36.0000,       2.5000
    2781,      76.0000,      36.0000,       5.0000
    2782,      76.0000,      38.0000,       0.0000
    2783,      76.0000,      38.0000,       2.5000
    2784,      76.0000,      38.0000,       5.0000
    2785,      76.0000,      40.0000,       0.0000
    2786,      76.0000,      40.0000,       2.5000
    2787,      76.0000,      40.0000,       5.0000
    2788,      76.0000,      42.0000,       0.0000
    2789,      76.0000,      42.0000,       2.5000
    2790,      76.0000,      42.0000,       5.0000
    2791,      76.0000,      44.0000,       0.0000
    2792,      76.0000,      44.0000,       2.5000
    2793,      76.0000,      44.0000,       5.0000
    2794,      76.0000,      46.0000,       0.0000
    2795,      76.0000,      46.0000,       2.5000
    2796,      76.0000,      46.0000,       5.0000
    2797,      76.0000,      48.0000,       0.0000
    2798,      76.0000,      48.0000,       2.5000
    2799,      76.0000,      48.0000,       5.0000
    2800,      76.0000,      50.0000,       0.0000
    2801,      76.0000,      50.0000,       2.5000
    2802,      76.0000,      50.0000,       5.0000
    2803,      76.0000,      52.0000,       0.0000
    2804,      76.0000,      52.0000,       2.5000
    2805,      76.0000,      52.0000,       5.0000
    2806,      76.0000,      54.0000,       0.0000
    2807,      76.0000,      54.0000,       2.5000
    2808,      76.0000,      54.0000,       5.0000
    2809,      76.0000,      56.0000,       0.0000
    2810,      76.0000,      56.0000,       2.5000
    2811,      76.0000,      56.0000,       5.0000
    2812,      76.0000,      58.0000,       0.0000
    2813,      76.0000,      58.0000,       2.5000
    2814,      76.0000,      58.0000,       5.0000
    2815,      76.0000,      60.0000,       0.0000
    2816,      76.0000,      60.0000,       2.5000
    2817,      76.0000,      60.0000,       5.0000
    2818,      76.0000,      62.0000,       0.0000
    2819,      76.0000,      62.0000,       2.5000
    2820,      76.0000,      62.0000,       5.0000
    2821,      76.0000,      64.0000,       0.0000
    2822,      76.0000,      64.0000,       2.5000
    2823,      76.0000,      64.0000,       5.0000
    2824,      76.0000,      66.0000,       0.0000
    2825,      76.0000,      66.0000,       2.5000
    2826,      76.0000,      66.0000,       5.0000
    2827,      76.0000,      68.0000,       0.0000
    2828,      76.0000,      68.0000,       2.5000
    2829,      76.0000,      68.0000,       5.0000
    2830,      76.0000,      70.0000,       0.0000
    2831,      76.0000,      70.0000,       2.5000
    2832,      76.0000,      70.0000,       5.0000
    2833,      76.0000,      72.0000,       0.0000
    2834,      76.0000,      72.0000,       2.5000
    2835,      76.0000,      72.0000,       5.0000
    2836,      76.0000,      74.0000,       0.0000
    2837,      76.0000,      74.0000,       2.5000
    2838,      76.0000,      74.0000,       5.0000
    2839,      76.0000,      76.0000,       0.0000
    2840,      76.0000,      76.0000,       2.5000
    2841,      76.0000,      76.0000,       5.0000
    2842,      76.0000,      81.0000,       0.0000
    2843,      76.0000,      81.0000,       2.5000
    2844,      76.0000,      81.0000,       5.0000
    2845,      76.0000,      86.0000,       0.0000
    2846,      76.0000,      86.0000,       2.5000
    2847,      76.0000,      86.0000,       5.0000
    2848,      76.0000,      91.0000,       0.0000
    2849,      76.0000,      91.0000,       2.5000
    2850,      76.0000,      91.0000,       5.0000
    2851,      76.0000,      96.0000,       0.0000
    2852,      76.0000,      96.0000,       2.5000
    2853,      76.0000,      96.0000,       5.0000
    2854,      81.0000,       0.0000,       0.0000
    2855,      81.0000,       0.0000,       2.5000
    2856,      81.0000,       0.0000,       5.0000
    2857,      81.0000,       5.0000,       0.0000
    2858,      81.0000,       5.0000,       2.5000
    2859,      81.0000,       5.0000,       5.0000
    2860,      81.0000,      10.0000,       0.0000
    2861,      81.0000,      10.0000,       2.5000
    2862,      81.0000,      10.0000,       5.0000
    2863,      81.0000,      15.0000,       0.0000
    2864,      81.0000,      15.0000,       2.5000
    2865,      81.0000,      15.0000,       5.0000
    2866,      81.0000,      20.0000,       0.0000
    2867,      81.0000,      20.0000,       2.5000
    2868,      81.0000,      20.0000,       5.0000
    2869,      81.0000,      25.0000,       0.0000
    2870,      81.0000,      25.0000,       2.5000
    2871,      81.0000,      25.0000,       5.0000
    2872,      81.0000,      30.0000,       0.0000
    2873,      81.0000,      30.0000,       2.5000
    2874,      81.0000,      30.0000,       5.0000
    2875,      81.0000,      32.0000,       0.0000
    2876,      81.0000,      32.0000,       2.5000
    2877,      81.0000,      32.0000,       5.0000
    2878,      81.0000,      34.0000,       0.0000
    2879,      81.0000,      34.0000,       2.5000
    2880,      81.0000,      34.0000,       5.0000
    2881,      81.0000,      36.0000,       0.0000
    2882,      81.0000,      36.0000,       2.5000
    2883,      81.0000,      36.0000,       5.0000
    2884,      81.0000,      38.0000,       0.0000
    2885,      81.0000,      38.0000,       2.5000
    2886,      81.0000,      38.0000,       5.0000
    2887,      81.0000,      40.0000,       0.0000
    2888,      81.0000,      40.0000,       2.5000
    2889,      81.0000,      40.0000,       5.0000
    2890,      81.0000,      42.0000,       0.0000
    2891,      81.0000,      42.0000,       2.5000
    2892,      81.0000,      42.0000,       5.0000
    2893,      81.0000,      44.0000,       0.0000
    2894,      81.0000,      44.0000,       2.5000
    2895,      81.0000,      44.0000,       5.0000
    2896,      81.0000,      46.0000,       0.0000
    2897,      81.0000,      46.0000,       2.5000
    2898,      81.0000,      46.0000,       5.0000
    2899,      81.0000,      48.0000,       0.0000
    2900,      81.0000,      48.0000,       2.5000
    2901,      81.0000,      48.0000,       5.0000
    2902,      81.0000,      50.0000,       0.0000
    2903,      81.0000,      50.0000,       2.5000
    2904,      81.0000,      50.0000,       5.0000
    2905,      81.0000,      52.0000,       0.0000
    2906,      81.0000,      52.0000,       2.5000
    2907,      81.0000,      52.0000,       5.0000
    2908,      81.0000,      54.0000,       0.0000
    2909,      81.0000,      54.0000,       2.5000
    2910,      81.0000,      54.0000,       5.0000
    2911,      81.0000,      56.0000,       0.0000
    2912,      81.0000,      56.0000,       2.5000
    2913,      81.0000,      56.0000,       5.0000
    2914,      81.0000,      58.0000,       0.0000
    2915,      81.0000,      58.0000,       2.5000
    2916,      81.0000,      58.0000,       5.0000
    2917,      81.0000,      60.0000,       0.0000
    2918,      81.0000,      60.0000,       2.5000
    2919,      81.0000,      60.0000,       5.0000
    2920,      81.0000,      62.0000,       0.0000
    2921,      81.0000,      62.0000,       2.5000
    2922,      81.0000,      62.0000,       5.0000
    2923,      81.0000,      64.0000,       0.0000
    2924,      81.0000,      64.0000,       2.5000
    2925,      81.0000,      64.0000,       5.0000
    2926,      81.0000,      66.0000,       0.0000
    2927,      81.0000,      66.0000,       2.5000
    2928,      81.0000,      66.0000,       5.0000
    2929,      81.0000,      68.0000,       0.0000
    2930,      81.0000,      68.0000,       2.5000
    2931,      81.0000,      68.0000,       5.0000
    2932,      81.0000,      70.0000,       0.0000
    2933,      81.0000,      70.0000,       2.5000
    2934,      81.0000,      70.0000,       5.0000
    2935,      81.0000,      72.0000,       0.0000
    2936,      81.0000,      72.0000,       2.5000
    2937,      81.0000,      72.0000,       5.0000
    2938,      81.0000,      74.0000,       0.0000
    2939,      81.0000,      74.0000,       2.5000
    2940,      81.0000,      74.0000,       5.0000
    2941,      81.0000,      76.0000,       0.0000
    2942,      81.0000,      76.0000,       2.5000
    2943,      81.0000,      76.0000,       5.0000
    2944,      81.0000,      81.0000,       0.0000
    2945,      81.0000,      81.0000,       2.5000
    2946,      81.0000,      81.0000,       5.0000
    2947,      81.0000,      86.0000,       0.0000
    2948,      81.0000,      86.0000,       2.5000
    2949,      81.0000,      86.0000,       5.0000
    2950,      81.0000,      91.0000,       0.0000
    2951,      81.0000,      91.0000,       2.5000
    2952,      81.0000,      91.0000,       5.0000
    2953,      81.0000,      96.0000,       0.0000
    2954,      81.0000,      96.0000,       2.5000
    2955,      81.0000,      96.0000,       5.0000
    2956,      86.0000,       0.0000,       0.0000
    2957,      86.0000,       0.0000,       2.5000
    2958,      86.0000,       0.0000,       5.0000
    2959,      86.0000,       5.0000,       0.0000
    2960,      86.0000,       5.0000,       2.5000
    2961,      86.0000,       5.0000,       5.0000
    2962,      86.0000,      10.0000,       0.0000
    2963,      86.0000,      10.0000,       2.5000
    2964,      86.0000,      10.0000,       5.0000
    2965,      86.0000,      15.0000,       0.0000
    2966,      86.0000,      15.0000,       2.5000
    2967,      86.0000,      15.0000,       5.0000
    2968,      86.0000,      20.0000,       0.0000
    2969,      86.0000,      20.0000,       2.5000
    2970,      86.0000,      20.0000,       5.0000
    2971,      86.0000,      25.0000,       0.0000
    2972,      86.0000,      25.0000,       2.5000
    2973,      86.0000,      25.0000,       5.0000
    2974,      86.0000,      30.0000,       0.0000
    2975,      86.0000,      30.0000,       2.5000
    2976,      86.0000,      30.0000,       5.0000
    2977,      86.0000,      32.0000,       0.0000
    2978,      86.0000,      32.0000,       2.5000
    2979,      86.0000,      32.0000,       5.0000
    2980,      86.0000,      34.0000,       0.0000
    2981,      86.0000,      34.0000,       2.5000
    2982,      86.0000,      34.0000,       5.0000
    2983,      86.0000,      36.0000,       0.0000
    2984,      86.0000,      36.0000,       2.5000
    2985,      86.0000,      36.0000,       5.0000
    2986,      86.0000,      38.0000,       0.0000
    2987,      86.0000,      38.0000,       2.5000
    2988,      86.0000,      38.0000,       5.0000
    2989,      86.0000,      40.0000,       0.0000
    2990,      86.0000,      40.0000,       2.5000
    2991,      86.0000,      40.0000,       5.0000
    2992,      86.0000,      42.0000,       0.0000
    2993,      86.0000,      42.0000,       2.5000
    2994,      86.0000,      42.0000,       5.0000
    2995,      86.0000,      44.0000,       0.0000
    2996,      86.0000,      44.0000,       2.5000
    2997,      86.0000,      44.0000,       5.0000
    2998,      86.0000,      46.0000,       0.0000
    2999,      86.0000,      46.0000,       2.5000
    3000,      86.0000,      46.0000,       5.0000
    3001,      86.0000,      48.0000,       0.0000
    3002,      86.0000,      48.0000,       2.5000
    3003,      86.0000,      48.0000,       5.0000
    3004,      86.0000,      50.0000,       0.0000
    3005,      86.0000,      50.0000,       2.5000
    3006,      86.0000,      50.0000,       5.0000
    3007,      86.0000,      52.0000,       0.0000
    3008,      86.0000,      52.0000,       2.5000
    3009,      86.0000,      52.0000,       5.0000
    3010,      86.0000,      54.0000,       0.0000
    3011,      86.0000,      54.0000,       2.5000
    3012,      86.0000,      54.0000,       5.0000
    3013,      86.0000,      56.0000,       0.0000
    3014,      86.0000,      56.0000,       2.5000
    3015,      86.0000,      56.0000,       5.0000
    3016,      86.0000,      58.0000,       0.0000
    3017,      86.0000,      58.0000,       2.5000
    3018,      86.0000,      58.0000,       5.0000
    3019,      86.0000,      60.0000,       0.0000
    3020,      86.0000,      60.0000,       2.5000
    3021,      86.0000,      60.0000,       5.0000
    3022,      86.0000,      62.0000,       0.0000
    3023,      86.0000,      62.0000,       2.5000
    3024,      86.0000,      62.0000,       5.0000
    3025,      86.0000,      64.0000,       0.0000
    3026,      86.0000,      64.0000,       2.5000
    3027,      86.0000,      64.0000,       5.0000
    3028,      86.0000,      66.0000,       0.0000
    3029,      86.0000,      66.0000,       2.5000
    3030,      86.0000,      66.0000,       5.0000
    3031,      86.0000,      68.0000,       0.0000
    3032,      86.0000,      68.0000,       2.5000
    3033,      86.0000,      68.0000,       5.0000
    3034,      86.0000,      70.0000,       0.0000
    3035,      86.0000,      70.0000,       2.5000
    3036,      86.0000,      70.0000,       5.0000
    3037,      86.0000,      72.0000,       0.0000
    3038,      86.0000,      72.0000,       2.5000
    3039,      86.0000,      72.0000,       5.0000
    3040,      86.0000,      74.0000,       0.0000
    3041,      86.0000,      74.0000,       2.5000
    3042,      86.0000,      74.0000,       5.0000
    3043,      86.0000,      76.0000,       0.0000
    3044,      86.0000,      76.0000,       2.5000
    3045,      86.0000,      76.0000,       5.0000
    3046,      86.0000,      81.0000,       0.0000
    3047,      86.0000,      81.0000,       2.5000
    3048,      86.0000,      81.0000,       5.0000
    3049,      86.0000,      86.0000,       0.0000
    3050,      86.0000,      86.0000,       2.5000
    3051,      86.0000,      86.0000,       5.0000
    3052,      86.0000,      91.0000,       0.0000
    3053,      86.0000,      91.0000,       2.5000
    3054,      86.0000,      91.0000,       5.0000
    3055,      86.0000,      96.0000,       0.0000
    3056,      86.0000,      96.0000,       2.5000
    3057,      86.0000,      96.0000,       5.0000
    3058,      91.0000,       0.0000,       0.0000
    3059,      91.0000,       0.0000,       2.5000
    3060,      91.0000,       0.0000,       5.0000
    3061,      91.0000,       5.0000,       0.0000
    3062,      91.0000,       5.0000,       2.5000
    3063,      91.0000,       5.0000,       5.0000
    3064,      91.0000,      10.0000,       0.0000
    3065,      91.0000,      10.0000,       2.5000
    3066,      91.0000,      10.0000,       5.0000
    3067,      91.0000,      15.0000,       0.0000
    3068,      91.0000,      15.0000,       2.5000
    3069,      91.0000,      15.0000,       5.0000
    3070,      91.0000,      20.0000,       0.0000
    3071,      91.0000,      20.0000,       2.5000
    3072,      91.0000,      20.0000,       5.0000
    3073,      91.0000,      25.0000,       0.0000
    3074,      91.0000,      25.0000,       2.5000
    3075,      91.0000,      25.0000,       5.0000
    3076,      91.0000,      30.0000,       0.0000
    3077,      91.0000,      30.0000,       2.5000
    3078,      91.0000,      30.0000,       5.0000
    3079,      91.0000,      32.0000,       0.0000
    3080,      91.0000,      32.0000,       2.5000
    3081,      91.0000,      32.0000,       5.0000
    3082,      91.0000,      34.0000,       0.0000
    3083,      91.0000,      34.0000,       2.5000
    3084,      91.0000,      34.0000,       5.0000
    3085,      91.0000,      36.0000,       0.0000
    3086,      91.0000,      36.0000,       2.5000
    3087,      91.0000,      36.0000,       5.0000
    3088,      91.0000,      38.0000,       0.0000
    3089,      91.0000,      38.0000,       2.5000
    3090,      91.0000,      38.0000,       5.0000
    3091,      91.0000,      40.0000,       0.0000
    3092,      91.0000,      40.0000,       2.5000
    3093,      91.0000,      40.0000,       5.0000
    3094,      91.0000,      42.0000,       0.0000
    3095,      91.0000,      42.0000,       2.5000
    3096,      91.0000,      42.0000,       5.0000
    3097,      91.0000,      44.0000,       0.0000
    3098,      91.0000,      44.0000,       2.5000
    3099,      91.0000,      44.0000,       5.0000
    3100,      91.0000,      46.0000,       0.0000
    3101,      91.0000,      46.0000,       2.5000
    3102,      91.0000,      46.0000,       5.0000
    3103,      91.0000,      48.0000,       0.0000
    3104,      91.0000,      48.0000,       2.5000
    3105,      91.0000,      48.0000,       5.0000
    3106,      91.0000,      50.0000,       0.0000
    3107,      91.0000,      50.0000,       2.5000
    3108,      91.0000,      50.0000,       5.0000
    3109,      91.0000,      52.0000,       0.0000
    3110,      91.0000,      52.0000,       2.5000
    3111,      91.0000,      52.0000,       5.0000
    3112,      91.0000,      54.0000,       0.0000
    3113,      91.0000,      54.0000,       2.5000
    3114,      91.0000,      54.0000,       5.0000
    3115,      91.0000,      56.0000,       0.0000
    3116,      91.0000,      56.0000,       2.5000
    3117,      91.0000,      56.0000,       5.0000
    3118,      91.0000,      58.0000,       0.0000
    3119,      91.0000,      58.0000,       2.5000
    3120,      91.0000,      58.0000,       5.0000
    3121,      91.0000,      60.0000,       0.0000
    3122,      91.0000,      60.0000,       2.5000
    3123,      91.0000,      60.0000,       5.0000
    3124,      91.0000,      62.0000,       0.0000
    3125,      91.0000,      62.0000,       2.5000
    3126,      91.0000,      62.0000,       5.0000
    3127,      91.0000,      64.0000,       0.0000
    3128,      91.0000,      64.0000,       2.5000
    3129,      91.0000,      64.0000,       5.0000
    3130,      91.0000,      66.0000,       0.0000
    3131,      91.0000,      66.0000,       2.5000
    3132,      91.0000,      66.0000,       5.0000
    3133,      91.0000,      68.0000,       0.0000
    3134,      91.0000,      68.0000,       2.5000
    3135,      91.0000,      68.0000,       5.0000
    3136,      91.0000,      70.0000,       0.0000
    3137,      91.0000,      70.0000,       2.5000
    3138,      91.0000,      70.0000,       5.0000
    3139,      91.0000,      72.0000,       0.0000
    3140,      91.0000,      72.0000,       2.5000
    3141,      91.0000,      72.0000,       5.0000
    3142,      91.0000,      74.0000,       0.0000
    3143,      91.0000,      74.0000,       2.5000
    3144,      91.0000,      74.0000,       5.0000
    3145,      91.0000,      76.0000,       0.0000
    3146,      91.0000,      76.0000,       2.5000
    3147,      91.0000,      76.0000,       5.0000
    3148,      91.0000,      81.0000,       0.0000
    3149,      91.0000,      81.0000,       2.5000
    3150,      91.0000,      81.0000,       5.0000
    3151,      91.0000,      86.0000,       0.0000
    3152,      91.0000,      86.0000,       2.5000
    3153,      91.0000,      86.0000,       5.0000
    3154,      91.0000,      91.0000,       0.0000
    3155,      91.0000,      91.0000,       2.5000
    3156,      91.0000,      91.0000,       5.0000
    3157,      91.0000,      96.0000,       0.0000
    3158,      91.0000,      96.0000,       2.5000
    3159,      91.0000,      96.0000,       5.0000
    3160,      96.0000,       0.0000,       0.0000
    3161,      96.0000,       0.0000,       2.5000
    3162,      96.0000,       0.0000,       5.0000
    3163,      96.0000,       5.0000,       0.0000
    3164,      96.0000,       5.0000,       2.5000
    3165,      96.0000,       5.0000,       5.0000
    3166,      96.0000,      10.0000,       0.0000
    3167,      96.0000,      10.0000,       2.5000
    3168,      96.0000,      10.0000,       5.0000
    3169,      96.0000,      15.0000,       0.0000
    3170,      96.0000,      15.0000,       2.5000
    3171,      96.0000,      15.0000,       5.0000
    3172,      96.0000,      20.0000,       0.0000
    3173,      96.0000,      20.0000,       2.5000
    3174,      96.0000,      20.0000,       5.0000
    3175,      96.0000,      25.0000,       0.0000
    3176,      96.0000,      25.0000,       2.5000
    3177,      96.0000,      25.0000,       5.0000
    3178,      96.0000,      30.0000,       0.0000
    3179,      96.0000,      30.0000,       2.5000
    3180,      96.0000,      30.0000,       5.0000
    3181,      96.0000,      32.0000,       0.0000
    3182,      96.0000,      32.0000,       2.5000
    3183,      96.0000,      32.0000,       5.0000
    3184,      96.0000,      34.0000,       0.0000
    3185,      96.0000,      34.0000,       2.5000
    3186,      96.0000,      34.0000,       5.0000
    3187,      96.0000,      36.0000,       0.0000
    3188,      96.0000,      36.0000,       2.5000
    3189,      96.0000,      36.0000,       5.0000
    3190,      96.0000,      38.0000,       0.0000
    3191,      96.0000,      38.0000,       2.5000
    3192,      96.0000,      38.0000,       5.0000
    3193,      96.0000,      40.0000,       0.0000
    3194,      96.0000,      40.0000,       2.5000
    3195,      96.0000,      40.0000,       5.0000
    3196,      96.0000,      42.0000,       0.0000
    3197,      96.0000,      42.0000,       2.5000
    3198,      96.0000,      42.0000,       5.0000
    3199,      96.0000,      44.0000,       0.0000
    3200,      96.0000,      44.0000,       2.5000
    3201,      96.0000,      44.0000,       5.0000
    3202,      96.0000,      46.0000,       0.0000
    3203,      96.0000,      46.0000,       2.5000
    3204,      96.0000,      46.0000,       5.0000
    3205,      96.0000,      48.0000,       0.0000
    3206,      96.0000,      48.0000,       2.5000
    3207,      96.0000,      48.0000,       5.0000
    3208,      96.0000,      50.0000,       0.0000
    3209,      96.0000,      50.0000,       2.5000
    3210,      96.0000,      50.0000,       5.0000
    3211,      96.0000,      52.0000,       0.0000
    3212,      96.0000,      52.0000,       2.5000
    3213,      96.0000,      52.0000,       5.0000
    3214,      96.0000,      54.0000,       0.0000
    3215,      96.0000,      54.0000,       2.5000
    3216,      96.0000,      54.0000,       5.0000
    3217,      96.0000,      56.0000,       0.0000
    3218,      96.0000,      56.0000,       2.5000
    3219,      96.0000,      56.0000,       5.0000
    3220,      96.0000,      58.0000,       0.0000
    3221,      96.0000,      58.0000,       2.5000
    3222,      96.0000,      58.0000,       5.0000
    3223,      96.0000,      60.0000,       0.0000
    3224,      96.0000,      60.0000,       2.5000
    3225,      96.0000,      60.0000,       5.0000
    3226,      96.0000,      62.0000,       0.0000
    3227,      96.0000,      62.0000,       2.5000
    3228,      96.0000,      62.0000,       5.0000
    3229,      96.0000,      64.0000,       0.0000
    3230,      96.0000,      64.0000,       2.5000
    3231,      96.0000,      64.0000,       5.0000
    3232,      96.0000,      66.0000,       0.0000
    3233,      96.0000,      66.0000,       2.5000
    3234,      96.0000,      66.0000,       5.0000
    3235,      96.0000,      68.0000,       0.0000
    3236,      96.0000,      68.0000,       2.5000
    3237,      96.0000,      68.0000,       5.0000
    3238,      96.0000,      70.0000,       0.0000
    3239,      96.0000,      70.0000,       2.5000
    3240,      96.0000,      70.0000,       5.0000
    3241,      96.0000,      72.0000,       0.0000
    3242,      96.0000,      72.0000,       2.5000
    3243,      96.0000,      72.0000,       5.0000
    3244,      96.0000,      74.0000,       0.0000
    3245,      96.0000,      74.0000,       2.5000
    3246,      96.0000,      74.0000,       5.0000
    3247,      96.0000,      76.0000,       0.0000
    3248,      96.0000,      76.0000,       2.5000
    3249,      96.0000,      76.0000,       5.0000
    3250,      96.0000,      81.0000,       0.0000
    3251,      96.0000,      81.0000,       2.5000
    3252,      96.0000,      81.0000,       5.0000
    3253,      96.0000,      86.0000,       0.0000
    3254,      96.0000,      86.0000,       2.5000
    3255,      96.0000,      86.0000,       5.0000
    3256,      96.0000,      91.0000,       0.0000
    3257,      96.0000,      91.0000,       2.5000
    3258,      96.0000,      91.0000,       5.0000
    3259,      96.0000,      96.0000,       0.0000
    3260,      96.0000,      96.0000,       2.5000
    3261,      96.0000,      96.0000,       5.0000

*ELEMENT, TYPE=C3D8, ELSET=EALL
       1, 1,103,106,4, 2,104,107,5
       2, 103,205,208,106, 104,206,209,107
       3, 205,307,310,208, 206,308,311,209
       4, 307,409,412,310, 308,410,413,311
       5, 409,511,514,412, 410,512,515,413
       6, 511,613,616,514, 512,614,617,515
       7, 613,715,718,616, 614,716,719,617
       8, 715,817,820,718, 716,818,821,719
       9, 817,919,922,820, 818,920,923,821
      10, 919,1021,1024,922, 920,1022,1025,923
      11, 1021,1123,1126,1024, 1022,1124,1127,1025
      12, 1123,1225,1228,1126, 1124,1226,1229,1127
      13, 1225,1312,1315,1228, 1226,1313,1316,1229
      14, 1312,1393,1396,1315, 1313,1394,1397,1316
      15, 1393,1468,1471,1396, 1394,1469,1472,1397
      16, 1468,1543,1546,1471, 1469,1544,1547,1472
      17, 1543,1618,1621,1546, 1544,1619,1622,1547
      18, 1618,1693,1696,1621, 1619,1694,1697,1622
      19, 1693,1768,1771,1696, 1694,1769,1772,1697
      20, 1768,1849,1852,1771, 1769,1850,1853,1772
      21, 1849,1936,1939,1852, 1850,1937,1940,1853
      22, 1936,2038,2041,1939, 1937,2039,2042,1940
      23, 2038,2140,2143,2041, 2039,2141,2144,2042
      24, 2140,2242,2245,2143, 2141,2243,2246,2144
      25, 2242,2344,2347,2245, 2243,2345,2348,2246
      26, 2344,2446,2449,2347, 2345,2447,2450,2348
      27, 2446,2548,2551,2449, 2447,2549,2552,2450
      28, 2548,2650,2653,2551, 2549,2651,2654,2552
      29, 2650,2752,2755,2653, 2651,2753,2756,2654
      30, 2752,2854,2857,2755, 2753,2855,2858,2756
      31, 2854,2956,2959,2857, 2855,2957,2960,2858
      32, 2956,3058,3061,2959, 2957,3059,3062,2960
      33, 3058,3160,3163,3061, 3059,3161,3164,3062
      34, 4,106,109,7, 5,107,110,8
      35, 106,208,211,109, 107,209,212,110
      36, 208,310,313,211, 209,311,314,212
      37, 310,412,415,313, 311,413,416,314
      38, 412,514,517,415, 413,515,518,416
      39, 514,616,619,517, 515,617,620,518
      40, 616,718,721,619, 617,719,722,620
      41, 718,820,823,721, 719,821,824,722
      42, 820,922,925,823, 821,923,926,824
      43, 922,1024,1027,925, 923,1025,1028,926
      44, 1024,1126,1129,1027, 1025,1127,1130,1028
      45, 1126,1228,1231,1129, 1127,1229,1232,1130
      46, 1228,1315,1318,1231, 1229,1316,1319,1232
      47, 1315,1396,1399,1318, 1316,1397,1400,1319
      48, 1396,1471,1474,1399, 1397,1472,1475,1400
      49, 1471,1546,1549,1474, 1472,1547,1550,1475
      50, 1546,1621,1624,1549, 1547,1622,1625,1550
      51, 1621,1696,1699,1624, 1622,1697,1700,1625
      52, 1696,1771,1774,1699, 1697,1772,1775,1700
      53, 1771,1852,1855,1774, 1772,1853,1856,1775
      54, 1852,1939,1942,1855, 1853,1940,1943,1856
      55, 1939,2041,2044,1942, 1940,2042,2045,1943
      56, 2041,2143,2146,2044, 2042,2144,2147,2045
      57, 2143,2245,2248,2146, 2144,2246,2249,2147
      58, 2245,2347,2350,2248, 2246,2348,2351,2249
      59, 2347,2449,2452,2350, 2348,2450,2453,2351
      60, 2449,2551,2554,2452, 2450,2552,2555,2453
      61, 2551,2653,2656,2554, 2552,2654,2657,2555
      62, 2653,2755,2758,2656, 2654,2756,2759,2657
      63, 2755,2857,2860,2758, 2756,2858,2861,2759
      64, 2857,2959,2962,2860, 2858,2960,2963,2861
      65, 2959,3061,3064,2962, 2960,3062,3065,2963
      66, 3061,3163,3166,3064, 3062,3164,3167,3065
      67, 7,109,112,10, 8,110,113,11
      68, 109,211,214,112, 110,212,215,113
      69, 211,313,316,214, 212,314,317,215
      70, 313,415,418,316, 314,416,419,317
      71, 415,517,520,418, 416,518,521,419
      72, 517,619,622,520, 518,620,623,521
      73, 619,721,724,622, 620,722,725,623
      74, 721,823,826,724, 722,824,827,725
      75, 823,925,928,826, 824,926,929,827
      76, 925,1027,1030,928, 926,1028,1031,929
      77, 1027,1129,1132,1030, 1028,1130,1133,1031
      78, 1129,1231,1234,1132, 1130,1232,1235,1133
      79, 1231,1318,1321,1234, 1232,1319,1322,1235
      80, 1318,1399,1402,1321, 1319,1400,1403,1322
      81, 1399,1474,1477,1402, 1400,1475,1478,1403
      82, 1474,1549,1552,1477, 1475,1550,1553,1478
      83, 1549,1624,1627,1552, 1550,1625,1628,1553
      84, 1624,1699,1702,1627, 1625,1700,1703,1628
      85, 1699,1774,1777,1702, 1700,1775,1778,1703
      86, 1774,1855,1858,1777, 1775,1856,1859,1778
      87, 1855,1942,1945,1858, 1856,1943,1946,1859
      88, 1942,2044,2047,1945, 1943,2045,2048,1946
      89, 2044,2146,2149,2047, 2045,2147,2150,2048
      90, 2146,2248,2251,2149, 2147,2249,2252,2150
      91, 2248,2350,2353,2251, 2249,2351,2354,2252
      92, 2350,2452,2455,2353, 2351,2453,2456,2354
      93, 2452,2554,2557,2455, 2453,2555,2558,2456
      94, 2554,2656,2659,2557, 2555,2657,2660,2558
      95, 2656,2758,2761,2659, 2657,2759,2762,2660
      96, 2758,2860,2863,2761, 2759,2861,2864,2762
      97, 2860,2962,2965,2863, 2861,2963,2966,2864
      98, 2962,3064,3067,2965, 2963,3065,3068,2966
      99, 3064,3166,3169,3067, 3065,3167,3170,3068
     100, 10,112,115,13, 11,113,116,14
     101, 112,214,217,115, 113,215,218,116
     102, 214,316,319,217, 215,317,320,218
     103, 316,418,421,319, 317,419,422,320
     104, 418,520,523,421, 419,521,524,422
     105, 520,622,625,523, 521,623,626,524
     106, 622,724,727,625, 623,725,728,626
     107, 724,826,829,727, 725,827,830,728
     108, 826,928,931,829, 827,929,932,830
     109, 928,1030,1033,931, 929,1031,1034,932
     110, 1030,1132,1135,1033, 1031,1133,1136,1034
     111, 1132,1234,1237,1135, 1133,1235,1238,1136
     112, 1234,1321,1324,1237, 1235,1322,1325,1238
     113, 1321,1402,1405,1324, 1322,1403,1406,1325
     114, 1402,1477,1480,1405, 1403,1478,1481,1406
     115, 1477,1552,1555,1480, 1478,1553,1556,1481
     116, 1552,1627,1630,1555, 1553,1628,1631,1556
     117, 1627,1702,1705,1630, 1628,1703,1706,1631
     118, 1702,1777,1780,1705, 1703,1778,1781,1706
     119, 1777,1858,1861,1780, 1778,1859,1862,1781
     120, 1858,1945,1948,1861, 1859,1946,1949,1862
     121, 1945,2047,2050,1948, 1946,2048,2051,1949
     122, 2047,2149,2152,2050, 2048,2150,2153,2051
     123, 2149,2251,2254,2152, 2150,2252,2255,2153
     124, 2251,2353,2356,2254, 2252,2354,2357,2255
     125, 2353,2455,2458,2356, 2354,2456,2459,2357
     126, 2455,2557,2560,2458, 2456,2558,2561,2459
     127, 2557,2659,2662,2560, 2558,2660,2663,2561
     128, 2659,2761,2764,2662, 2660,2762,2765,2663
     129, 2761,2863,2866,2764, 2762,2864,2867,2765
     130, 2863,2965,2968,2866, 2864,2966,2969,2867
     131, 2965,3067,3070,2968, 2966,3068,3071,2969
     132, 3067,3169,3172,3070, 3068,3170,3173,3071
     133, 13,115,118,16, 14,116,119,17
     134, 115,217,220,118, 116,218,221,119
     135, 217,319,322,220, 218,320,323,221
     136, 319,421,424,322, 320,422,425,323
     137, 421,523,526,424, 422,524,527,425
     138, 523,625,628,526, 524,626,629,527
     139, 625,727,730,628, 626,728,731,629
     140, 727,829,832,730, 728,830,833,731
     141, 829,931,934,832, 830,932,935,833
     142, 931,1033,1036,934, 932,1034,1037,935
     143, 1033,1135,1138,1036, 1034,1136,1139,1037
     144, 1135,1237,1240,1138, 1136,1238,1241,1139
     145, 1237,1324,1327,1240, 1238,1325,1328,1241
     146, 1324,1405,1408,1327, 1325,1406,1409,1328
     147, 1405,1480,1483,1408, 1406,1481,1484,1409
     148, 1480,1555,1558,1483, 1481,1556,1559,1484
     149, 1555,1630,1633,1558, 1556,1631,1634,1559
     150, 1630,1705,1708,1633, 1631,1706,1709,1634
     151, 1705,1780,1783,1708, 1706,1781,1784,1709
     152, 1780,1861,1864,1783, 1781,1862,1865,1784
     153, 1861,1948,1951,1864, 1862,1949,1952,1865
     154, 1948,2050,2053,1951, 1949,2051,2054,1952
     155, 2050,2152,2155,2053, 2051,2153,2156,2054
     156, 2152,2254,2257,2155, 2153,2255,2258,2156
     157, 2254,2356,2359,2257, 2255,2357,2360,2258
     158, 2356,2458,2461,2359, 2357,2459,2462,2360
     159, 2458,2560,2563,2461, 2459,2561,2564,2462
     160, 2560,2662,2665,2563, 2561,2663,2666,2564
     161, 2662,2764,2767,2665, 2663,2765,2768,2666
     162, 2764,2866,2869,2767, 2765,2867,2870,2768
     163, 2866,2968,2971,2869, 2867,2969,2972,2870
     164, 2968,3070,3073,2971, 2969,3071,3074,2972
     165, 3070,3172,3175,3073, 3071,3173,3176,3074
     166, 16,118,121,19, 17,119,122,20
     167, 118,220,223,121, 119,221,224,122
     168, 220,322,325,223, 221,323,326,224
     169, 322,424,427,325, 323,425,428,326
     170, 424,526,529,427, 425,527,530,428
     171, 526,628,631,529, 527,629,632,530
     172, 628,730,733,631, 629,731,734,632
     173, 730,832,835,733, 731,833,836,734
     174, 832,934,937,835, 833,935,938,836
     175, 934,1036,1039,937, 935,1037,1040,938
     176, 1036,1138,1141,1039, 1037,1139,1142,1040
     177, 1138,1240,1243,1141, 1139,1241,1244,1142
     178, 1240,1327,1330,1243, 1241,1328,1331,1244
     179, 1327,1408,1411,1330, 1328,1409,1412,1331
     180, 1408,1483,1486,1411, 1409,1484,1487,1412
     181, 1483,1558,1561,1486, 1484,1559,1562,1487
     182, 1558,1633,1636,1561, 1559,1634,1637,1562
     183, 1633,1708,1711,1636, 1634,1709,1712,1637
     184, 1708,1783,1786,1711, 1709,1784,1787,1712
     185, 1783,1864,1867,1786, 1784,1865,1868,1787
     186, 1864,1951,1954,1867, 1865,1952,1955,1868
     187, 1951,2053,2056,1954, 1952,2054,2057,1955
     188, 2053,2155,2158,2056, 2054,2156,2159,2057
     189, 2155,2257,2260,2158, 2156,2258,2261,2159
     190, 2257,2359,2362,2260, 2258,2360,2363,2261
     191, 2359,2461,2464,2362, 2360,2462,2465,2363
     192, 2461,2563,2566,2464, 2462,2564,2567,2465
     193, 2563,2665,2668,2566, 2564,2666,2669,2567
     194, 2665,2767,2770,2668, 2666,2768,2771,2669
     195, 2767,2869,2872,2770, 2768,2870,2873,2771
     196, 2869,2971,2974,2872, 2870,2972,2975,2873
     197, 2971,3073,3076,2974, 2972,3074,3077,2975
     198, 3073,3175,3178,3076, 3074,3176,3179,3077
     199, 19,121,124,22, 20,122,125,23
     200, 121,223,226,124, 122,224,227,125
     201, 223,325,328,226, 224,326,329,227
     202, 325,427,430,328, 326,428,431,329
     203, 427,529,532,430, 428,530,533,431
     204, 529,631,634,532, 530,632,635,533
     205, 631,733,736,634, 632,734,737,635
     206, 733,835,838,736, 734,836,839,737
     207, 835,937,940,838, 836,938,941,839
     208, 937,1039,1042,940, 938,1040,1043,941
     209, 1039,1141,1144,1042, 1040,1142,1145,1043
     210, 1141,1243,1246,1144, 1142,1244,1247,1145
     211, 1243,1330,1333,1246, 1244,1331,1334,1247
     212, 1330,1411,1414,1333, 1331,1412,1415,1334
     213, 1411,1486,1489,1414, 1412,1487,1490,1415
     214, 1486,1561,1564,1489, 1487,1562,1565,1490
     215, 1561,1636,1639,1564, 1562,1637,1640,1565
     216, 1636,1711,1714,1639, 1637,1712,1715,1640
     217, 1711,1786,1789,1714, 1712,1787,1790,1715
     218, 1786,1867,1870,1789, 1787,1868,1871,1790
     219, 1867,1954,1957,1870, 1868,1955,1958,1871
     220, 1954,2056,2059,1957, 1955,2057,2060,1958
     221, 2056,2158,2161,2059, 2057,2159,2162,2060
     222, 2158,2260,2263,2161, 2159,2261,2264,2162
     223, 2260,2362,2365,2263, 2261,2363,2366,2264
     224, 2362,2464,2467,2365, 2363,2465,2468,2366
     225, 2464,2566,2569,2467, 2465,2567,2570,2468
     226, 2566,2668,2671,2569, 2567,2669,2672,2570
     227, 2668,2770,2773,2671, 2669,2771,2774,2672
     228, 2770,2872,2875,2773, 2771,2873,2876,2774
     229, 2872,2974,2977,2875, 2873,2975,2978,2876
     230, 2974,3076,3079,2977, 2975,3077,3080,2978
     231, 3076,3178,3181,3079, 3077,3179,3182,3080
     232, 22,124,127,25, 23,125,128,26
     233, 124,226,229,127, 125,227,230,128
     234, 226,328,331,229, 227,329,332,230
     235, 328,430,433,331, 329,431,434,332
     236, 430,532,535,433, 431,533,536,434
     237, 532,634,637,535, 533,635,638,536
     238, 634,736,739,637, 635,737,740,638
     239, 736,838,841,739, 737,839,842,740
     240, 838,940,943,841, 839,941,944,842
     241, 940,1042,1045,943, 941,1043,1046,944
     242, 1042,1144,1147,1045, 1043,1145,1148,1046
     243, 1144,1246,1249,1147, 1145,1247,1250,1148
     244, 1246,1333,1336,1249, 1247,1334,1337,1250
     245, 1333,1414,1417,1336, 1334,1415,1418,1337
     246, 1414,1489,1492,1417, 1415,1490,1493,1418
     247, 1489,1564,1567,1492, 1490,1565,1568,1493
     248, 1564,1639,1642,1567, 1565,1640,1643,1568
     249, 1639,1714,1717,1642, 1640,1715,1718,1643
     250, 1714,1789,1792,1717, 1715,1790,1793,1718
     251, 1789,1870,1873,1792, 1790,1871,1874,1793
     252, 1870,1957,1960,1873, 1871,1958,1961,1874
     253, 1957,2059,2062,1960, 1958,2060,2063,1961
     254, 2059,2161,2164,2062, 2060,2162,2165,2063
     255, 2161,2263,2266,2164, 2162,2264,2267,2165
     256, 2263,2365,2368,2266, 2264,2366,2369,2267
     257, 2365,2467,2470,2368, 2366,2468,2471,2369
     258, 2467,2569,2572,2470, 2468,2570,2573,2471
     259, 2569,2671,2674,2572, 2570,2672,2675,2573
     260, 2671,2773,2776,2674, 2672,2774,2777,2675
     261, 2773,2875,2878,2776, 2774,2876,2879,2777
     262, 2875,2977,2980,2878, 2876,2978,2981,2879
     263, 2977,3079,3082,2980, 2978,3080,3083,2981
     264, 3079,3181,3184,3082, 3080,3182,3185,3083
     265, 25,127,130,28, 26,128,131,29
     266, 127,229,232,130, 128,230,233,131
     267, 229,331,334,232, 230,332,335,233
     268, 331,433,436,334, 332,434,437,335
     269, 433,535,538,436, 434,536,539,437
     270, 535,637,640,538, 536,638,641,539
     271, 637,739,742,640, 638,740,743,641
     272, 739,841,844,742, 740,842,845,743
     273, 841,943,946,844, 842,944,947,845
     274, 943,1045,1048,946, 944,1046,1049,947
     275, 1045,1147,1150,1048, 1046,1148,1151,1049
     276, 1147,1249,1252,1150, 1148,1250,1253,1151
     277, 1249,1336,1339,1252, 1250,1337,1340,1253
     278, 1336,1417,1420,1339, 1337,1418,1421,1340
     279, 1417,1492,1495,1420, 1418,1493,1496,1421
     280, 1492,1567,1570,1495, 1493,1568,1571,1496
     281, 1567,1642,1645,1570, 1568,1643,1646,1571
     282, 1642,1717,1720,1645, 1643,1718,1721,1646
     283, 1717,1792,1795,1720, 1718,1793,1796,1721
     284, 1792,1873,1876,1795, 1793,1874,1877,1796
     285, 1873,1960,1963,1876, 1874,1961,1964,1877
     286, 1960,2062,2065,1963, 1961,2063,2066,1964
     287, 2062,2164,2167,2065, 2063,2165,2168,2066
     288, 2164,2266,2269,2167, 2165,2267,2270,2168
     289, 2266,2368,2371,2269, 2267,2369,2372,2270
     290, 2368,2470,2473,2371, 2369,2471,2474,2372
     291, 2470,2572,2575,2473, 2471,2573,2576,2474
     292, 2572,2674,2677,2575, 2573,2675,2678,2576
     293, 2674,2776,2779,2677, 2675,2777,2780,2678
     294, 2776,2878,2881,2779, 2777,2879,2882,2780
     295, 2878,2980,2983,2881, 2879,2981,2984,2882
     296, 2980,3082,3085,2983, 2981,3083,3086,2984
     297, 3082,3184,3187,3085, 3083,3185,3188,3086
     298, 28,130,133,31, 29,131,134,32
     299, 130,232,235,133, 131,233,236,134
     300, 232,334,337,235, 233,335,338,236
     301, 334,436,439,337, 335,437,440,338
     302, 436,538,541,439, 437,539,542,440
     303, 538,640,643,541, 539,641,644,542
     304, 640,742,745,643, 641,743,746,644
     305, 742,844,847,745, 743,845,848,746
     306, 844,946,949,847, 845,947,950,848
     307, 946,1048,1051,949, 947,1049,1052,950
     308, 1048,1150,1153,1051, 1049,1151,1154,1052
     309, 1150,1252,1255,1153, 1151,1253,1256,1154
     310, 1252,1339,1342,1255, 1253,1340,1343,1256
     311, 1339,1420,1423,1342, 1340,1421,1424,1343
     312, 1420,1495,1498,1423, 1421,1496,1499,1424
     313, 1495,1570,1573,1498, 1496,1571,1574,1499
     314, 1570,1645,1648,1573, 1571,1646,1649,1574
     315, 1645,1720,1723,1648, 1646,1721,1724,1649
     316, 1720,1795,1798,1723, 1721,1796,1799,1724
     317, 1795,1876,1879,1798, 1796,1877,1880,1799
     318, 1876,1963,1966,1879, 1877,1964,1967,1880
     319, 1963,2065,2068,1966, 1964,2066,2069,1967
     320, 2065,2167,2170,2068, 2066,2168,2171,2069
     321, 2167,2269,2272,2170, 2168,2270,2273,2171
     322, 2269,2371,2374,2272, 2270,2372,2375,2273
     323, 2371,2473,2476,2374, 2372,2474,2477,2375
     324, 2473,2575,2578,2476, 2474,2576,2579,2477
     325, 2575,2677,2680,2578, 2576,2678,2681,2579
     326, 2677,2779,2782,2680, 2678,2780,2783,2681
     327, 2779,2881,2884,2782, 2780,2882,2885,2783
     328, 2881,2983,2986,2884, 2882,2984,2987,2885
     329, 2983,3085,3088,2986, 2984,3086,3089,2987
     330, 3085,3187,3190,3088, 3086,3188,3191,3089
     331, 31,133,136,34, 32,134,137,35
     332, 133,235,238,136, 134,236,239,137
     333, 235,337,340,238, 236,338,341,239
     334, 337,439,442,340, 338,440,443,341
     335, 439,541,544,442, 440,542,545,443
     336, 541,643,646,544, 542,644,647,545
     337, 643,745,748,646, 644,746,749,647
     338, 745,847,850,748, 746,848,851,749
     339, 847,949,952,850, 848,950,953,851
     340, 949,1051,1054,952, 950,1052,1055,953
     341, 1051,1153,1156,1054, 1052,1154,1157,1055
     342, 1153,1255,1258,1156, 1154,1256,1259,1157
     343, 1255,1342,1345,1258, 1256,1343,1346,1259
     344, 1342,1423,1426,1345, 1343,1424,1427,1346
     345, 1423,1498,1501,1426, 1424,1499,1502,1427
     346, 1498,1573,1576,1501, 1499,1574,1577,1502
     347, 1573,1648,1651,1576, 1574,1649,1652,1577
     348, 1648,1723,1726,1651, 1649,1724,1727,1652
     349, 1723,1798,1801,1726, 1724,1799,1802,1727
     350, 1798,1879,1882,1801, 1799,1880,1883,1802
     351, 1879,1966,1969,1882, 1880,1967,1970,1883
     352, 1966,2068,2071,1969, 1967,2069,2072,1970
     353, 2068,2170,2173,2071, 2069,2171,2174,2072
     354, 2170,2272,2275,2173, 2171,2273,2276,2174
     355, 2272,2374,2377,2275, 2273,2375,2378,2276
     356, 2374,2476,2479,2377, 2375,2477,2480,2378
     357, 2476,2578,2581,2479, 2477,2579,2582,2480
     358, 2578,2680,2683,2581, 2579,2681,2684,2582
     359, 2680,2782,2785,2683, 2681,2783,2786,2684
     360, 2782,2884,2887,2785, 2783,2885,2888,2786
     361, 2884,2986,2989,2887, 2885,2987,2990,2888
     362, 2986,3088,3091,2989, 2987,3089,3092,2990
     363, 3088,3190,3193,3091, 3089,3191,3194,3092
     364, 34,136,139,37, 35,137,140,38
     365, 136,238,241,139, 137,239,242,140
     366, 238,340,343,241, 239,341,344,242
     367, 340,442,445,343, 341,443,446,344
     368, 442,544,547,445, 443,545,548,446
     369, 544,646,649,547, 545,647,650,548
     370, 646,748,751,649, 647,749,752,650
     371, 748,850,853,751, 749,851,854,752
     372, 850,952,955,853, 851,953,956,854
     373, 952,1054,1057,955, 953,1055,1058,956
     374, 1054,1156,1159,1057, 1055,1157,1160,1058
     375, 1156,1258,1261,1159, 1157,1259,1262,1160
     376, 1258,1345,1348,1261, 1259,1346,1349,1262
     377, 1801,1882,1885,1804, 1802,1883,1886,1805
     378, 1882,1969,1972,1885, 1883,1970,1973,1886
     379, 1969,2071,2074,1972, 1970,2072,2075,1973
     380, 2071,2173,2176,2074, 2072,2174,2177,2075
     381, 2173,2275,2278,2176, 2174,2276,2279,2177
     382, 2275,2377,2380,2278, 2276,2378,2381,2279
     383, 2377,2479,2482,2380, 2378,2480,2483,2381
     384, 2479,2581,2584,2482, 2480,2582,2585,2483
     385, 2581,2683,2686,2584, 2582,2684,2687,2585
     386, 2683,2785,2788,2686, 2684,2786,2789,2687
     387, 2785,2887,2890,2788, 2786,2888,2891,2789
     388, 2887,2989,2992,2890, 2888,2990,2993,2891
     389, 2989,3091,3094,2992, 2990,3092,3095,2993
     390, 3091,3193,3196,3094, 3092,3194,3197,3095
     391, 37,139,142,40, 38,140,143,41
     392, 139,241,244,142, 140,242,245,143
     393, 241,343,346,244, 242,344,347,245
     394, 343,445,448,346, 344,446,449,347
     395, 445,547,550,448, 446,548,551,449
     396, 547,649,652,550, 548,650,653,551
     397, 649,751,754,652, 650,752,755,653
     398, 751,853,856,754, 752,854,857,755
     399, 853,955,958,856, 854,956,959,857
     400, 955,1057,1060,958, 956,1058,1061,959
     401, 1057,1159,1162,1060, 1058,1160,1163,1061
     402, 1159,1261,1264,1162, 1160,1262,1265,1163
     403, 1885,1972,1975,1888, 1886,1973,1976,1889
     404, 1972,2074,2077,1975, 1973,2075,2078,1976
     405, 2074,2176,2179,2077, 2075,2177,2180,2078
     406, 2176,2278,2281,2179, 2177,2279,2282,2180
     407, 2278,2380,2383,2281, 2279,2381,2384,2282
     408, 2380,2482,2485,2383, 2381,2483,2486,2384
     409, 2482,2584,2587,2485, 2483,2585,2588,2486
     410, 2584,2686,2689,2587, 2585,2687,2690,2588
     411, 2686,2788,2791,2689, 2687,2789,2792,2690
     412, 2788,2890,2893,2791, 2789,2891,2894,2792
     413, 2890,2992,2995,2893, 2891,2993,2996,2894
     414, 2992,3094,3097,2995, 2993,3095,3098,2996
     415, 3094,3196,3199,3097, 3095,3197,3200,3098
     416, 40,142,145,43, 41,143,146,44
     417, 142,244,247,145, 143,245,248,146
     418, 244,346,349,247, 245,347,350,248
     419, 346,448,451,349, 347,449,452,350
     420, 448,550,553,451, 449,551,554,452
     421, 550,652,655,553, 551,653,656,554
     422, 652,754,757,655, 653,755,758,656
     423, 754,856,859,757, 755,857,860,758
     424, 856,958,961,859, 857,959,962,860
     425, 958,1060,1063,961, 959,1061,1064,962
     426, 1060,1162,1165,1063, 1061,1163,1166,1064
     427, 1975,2077,2080,1978, 1976,2078,2081,1979
     428, 2077,2179,2182,2080, 2078,2180,2183,2081
     429, 2179,2281,2284,2182, 2180,2282,2285,2183
     430, 2281,2383,2386,2284, 2282,2384,2387,2285
     431, 2383,2485,2488,2386, 2384,2486,2489,2387
     432, 2485,2587,2590,2488, 2486,2588,2591,2489
     433, 2587,2689,2692,2590, 2588,2690,2693,2591
     434, 2689,2791,2794,2692, 2690,2792,2795,2693
     435, 2791,2893,2896,2794, 2792,2894,2897,2795
     436, 2893,2995,2998,2896, 2894,2996,2999,2897
     437, 2995,3097,3100,2998, 2996,3098,3101,2999
     438, 3097,3199,3202,3100, 3098,3200,3203,3101
     439, 43,145,148,46, 44,146,149,47
     440, 145,247,250,148, 146,248,251,149
     441, 247,349,352,250, 248,350,353,251
     442, 349,451,454,352, 350,452,455,353
     443, 451,553,556,454, 452,554,557,455
     444, 553,655,658,556, 554,656,659,557
     445, 655,757,760,658, 656,758,761,659
     446, 757,859,862,760, 758,860,863,761
     447, 859,961,964,862, 860,962,965,863
     448, 961,1063,1066,964, 962,1064,1067,965
     449, 1063,1165,1168,1066, 1064,1166,1169,1067
     450, 1978,2080,2083,1981, 1979,2081,2084,1982
     451, 2080,2182,2185,2083, 2081,2183,2186,2084
     452, 2182,2284,2287,2185, 2183,2285,2288,2186
     453, 2284,2386,2389,2287, 2285,2387,2390,2288
     454, 2386,2488,2491,2389, 2387,2489,2492,2390
     455, 2488,2590,2593,2491, 2489,2591,2594,2492
     456, 2590,2692,2695,2593, 2591,2693,2696,2594
     457, 2692,2794,2797,2695, 2693,2795,2798,2696
     458, 2794,2896,2899,2797, 2795,2897,2900,2798
     459, 2896,2998,3001,2899, 2897,2999,3002,2900
     460, 2998,3100,3103,3001, 2999,3101,3104,3002
     461, 3100,3202,3205,3103, 3101,3203,3206,3104
     462, 46,148,151,49, 47,149,152,50
     463, 148,250,253,151, 149,251,254,152
     464, 250,352,355,253, 251,353,356,254
     465, 352,454,457,355, 353,455,458,356
     466, 454,556,559,457, 455,557,560,458
     467, 556,658,661,559, 557,659,662,560
     468, 658,760,763,661, 659,761,764,662
     469, 760,862,865,763, 761,863,866,764
     470, 862,964,967,865, 863,965,968,866
     471, 964,1066,1069,967, 965,1067,1070,968
     472, 1066,1168,1171,1069, 1067,1169,1172,1070
     473, 1981,2083,2086,1984, 1982,2084,2087,1985
     474, 2083,2185,2188,2086, 2084,2186,2189,2087
     475, 2185,2287,2290,2188, 2186,2288,2291,2189
     476, 2287,2389,2392,2290, 2288,2390,2393,2291
     477, 2389,2491,2494,2392, 2390,2492,2495,2393
     478, 2491,2593,2596,2494, 2492,2594,2597,2495
     479, 2593,2695,2698,2596, 2594,2696,2699,2597
     480, 2695,2797,2800,2698, 2696,2798,2801,2699
     481, 2797,2899,2902,2800, 2798,2900,2903,2801
     482, 2899,3001,3004,2902, 2900,3002,3005,2903
     483, 3001,3103,3106,3004, 3002,3104,3107,3005
     484, 3103,3205,3208,3106, 3104,3206,3209,3107
     485, 49,151,154,52, 50,152,155,53
     486, 151,253,256,154, 152,254,257,155
     487, 253,355,358,256, 254,356,359,257
     488, 355,457,460,358, 356,458,461,359
     489, 457,559,562,460, 458,560,563,461
     490, 559,661,664,562, 560,662,665,563
     491, 661,763,766,664, 662,764,767,665
     492, 763,865,868,766, 764,866,869,767
     493, 865,967,970,868, 866,968,971,869
     494, 967,1069,1072,970, 968,1070,1073,971
     495, 1069,1171,1174,1072, 1070,1172,1175,1073
     496, 1984,2086,2089,1987, 1985,2087,2090,1988
     497, 2086,2188,2191,2089, 2087,2189,2192,2090
     498, 2188,2290,2293,2191, 2189,2291,2294,2192
     499, 2290,2392,2395,2293, 2291,2393,2396,2294
     500, 2392,2494,2497,2395, 2393,2495,2498,2396
     501, 2494,2596,2599,2497, 2495,2597,2600,2498
     502, 2596,2698,2701,2599, 2597,2699,2702,2600
     503, 2698,2800,2803,2701, 2699,2801,2804,2702
     504, 2800,2902,2905,2803, 2801,2903,2906,2804
     505, 2902,3004,3007,2905, 2903,3005,3008,2906
     506, 3004,3106,3109,3007, 3005,3107,3110,3008
     507, 3106,3208,3211,3109, 3107,3209,3212,3110
     508, 52,154,157,55, 53,155,158,56
     509, 154,256,259,157, 155,257,260,158
     510, 256,358,361,259, 257,359,362,260
     511, 358,460,463,361, 359,461,464,362
     512, 460,562,565,463, 461,563,566,464
     513, 562,664,667,565, 563,665,668,566
     514, 664,766,769,667, 665,767,770,668
     515, 766,868,871,769, 767,869,872,770
     516, 868,970,973,871, 869,971,974,872
     517, 970,1072,1075,973, 971,1073,1076,974
     518, 1072,1174,1177,1075, 1073,1175,1178,1076
     519, 1987,2089,2092,1990, 1988,2090,2093,1991
     520, 2089,2191,2194,2092, 2090,2192,2195,2093
     521, 2191,2293,2296,2194, 2192,2294,2297,2195
     522, 2293,2395,2398,2296, 2294,2396,2399,2297
     523, 2395,2497,2500,2398, 2396,2498,2501,2399
     524, 2497,2599,2602,2500, 2498,2600,2603,2501
     525, 2599,2701,2704,2602, 2600,2702,2705,2603
     526, 2701,2803,2806,2704, 2702,2804,2807,2705
     527, 2803,2905,2908,2806, 2804,2906,2909,2807
     528, 2905,3007,3010,2908, 2906,3008,3011,2909
     529, 3007,3109,3112,3010, 3008,3110,3113,3011
     530, 3109,3211,3214,3112, 3110,3212,3215,3113
     531, 55,157,160,58, 56,158,161,59
     532, 157,259,262,160, 158,260,263,161
     533, 259,361,364,262, 260,362,365,263
     534, 361,463,466,364, 362,464,467,365
     535, 463,565,568,466, 464,566,569,467
     536, 565,667,670,568, 566,668,671,569
     537, 667,769,772,670, 668,770,773,671
     538, 769,871,874,772, 770,872,875,773
     539, 871,973,976,874, 872,974,977,875
     540, 973,1075,1078,976, 974,1076,1079,977
     541, 1075,1177,1180,1078, 1076,1178,1181,1079
     542, 1990,2092,2095,1993, 1991,2093,2096,1994
     543, 2092,2194,2197,2095, 2093,2195,2198,2096
     544, 2194,2296,2299,2197, 2195,2297,2300,2198
     545, 2296,2398,2401,2299, 2297,2399,2402,2300
     546, 2398,2500,2503,2401, 2399,2501,2504,2402
     547, 2500,2602,2605,2503, 2501,2603,2606,2504
     548, 2602,2704,2707,2605, 2603,2705,2708,2606
     549, 2704,2806,2809,2707, 2705,2807,2810,2708
     550, 2806,2908,2911,2809, 2807,2909,2912,2810
     551, 2908,3010,3013,2911, 2909,3011,3014,2912
     552, 3010,3112,3115,3013, 3011,3113,3116,3014
     553, 3112,3214,3217,3115, 3113,3215,3218,3116
     554, 58,160,163,61, 59,161,164,62
     555, 160,262,265,163, 161,263,266,164
     556, 262,364,367,265, 263,365,368,266
     557, 364,466,469,367, 365,467,470,368
     558, 466,568,571,469, 467,569,572,470
     559, 568,670,673,571, 569,671,674,572
     560, 670,772,775,673, 671,773,776,674
     561, 772,874,877,775, 773,875,878,776
     562, 874,976,979,877, 875,977,980,878
     563, 976,1078,1081,979, 977,1079,1082,980
     564, 1078,1180,1183,1081, 1079,1181,1184,1082
     565, 1180,1267,1270,1183, 1181,1268,1271,1184
     566, 1891,1993,1996,1894, 1892,1994,1997,1895
     567, 1993,2095,2098,1996, 1994,2096,2099,1997
     568, 2095,2197,2200,2098, 2096,2198,2201,2099
     569, 2197,2299,2302,2200, 2198,2300,2303,2201
     570, 2299,2401,2404,2302, 2300,2402,2405,2303
     571, 2401,2503,2506,2404, 2402,2504,2507,2405
     572, 2503,2605,2608,2506, 2504,2606,2609,2507
     573, 2605,2707,2710,2608, 2606,2708,2711,2609
     574, 2707,2809,2812,2710, 2708,2810,2813,2711
     575, 2809,2911,2914,2812, 2810,2912,2915,2813
     576, 2911,3013,3016,2914, 2912,3014,3017,2915
     577, 3013,3115,3118,3016, 3014,3116,3119,3017
     578, 3115,3217,3220,3118, 3116,3218,3221,3119
     579, 61,163,166,64, 62,164,167,65
     580, 163,265,268,166, 164,266,269,167
     581, 265,367,370,268, 266,368,371,269
     582, 367,469,472,370, 368,470,473,371
     583, 469,571,574,472, 470,572,575,473
     584, 571,673,676,574, 572,674,677,575
     585, 673,775,778,676, 674,776,779,677
     586, 775,877,880,778, 776,878,881,779
     587, 877,979,982,880, 878,980,983,881
     588, 979,1081,1084,982, 980,1082,1085,983
     589, 1081,1183,1186,1084, 1082,1184,1187,1085
     590, 1183,1270,1273,1186, 1184,1271,1274,1187
     591, 1270,1351,1354,1273, 1271,1352,1355,1274
     592, 1807,1894,1897,1810, 1808,1895,1898,1811
     593, 1894,1996,1999,1897, 1895,1997,2000,1898
     594, 1996,2098,2101,1999, 1997,2099,2102,2000
     595, 2098,2200,2203,2101, 2099,2201,2204,2102
     596, 2200,2302,2305,2203, 2201,2303,2306,2204
     597, 2302,2404,2407,2305, 2303,2405,2408,2306
     598, 2404,2506,2509,2407, 2405,2507,2510,2408
     599, 2506,2608,2611,2509, 2507,2609,2612,2510
     600, 2608,2710,2713,2611, 2609,2711,2714,2612
     601, 2710,2812,2815,2713, 2711,2813,2816,2714
     602, 2812,2914,2917,2815, 2813,2915,2918,2816
     603, 2914,3016,3019,2917, 2915,3017,3020,2918
     604, 3016,3118,3121,3019, 3017,3119,3122,3020
     605, 3118,3220,3223,3121, 3119,3221,3224,3122
     606, 64,166,169,67, 65,167,170,68
     607, 166,268,271,169, 167,269,272,170
     608, 268,370,373,271, 269,371,374,272
     609, 370,472,475,373, 371,473,476,374
     610, 472,574,577,475, 473,575,578,476
     611, 574,676,679,577, 575,677,680,578
     612, 676,778,781,679, 677,779,782,680
     613, 778,880,883,781, 779,881,884,782
     614, 880,982,985,883, 881,983,986,884
     615, 982,1084,1087,985, 983,1085,1088,986
     616, 1084,1186,1189,1087, 1085,1187,1190,1088
     617, 1186,1273,1276,1189, 1187,1274,1277,1190
     618, 1273,1354,1357,1276, 1274,1355,1358,1277
     619, 1354,1429,1432,1357, 1355,1430,1433,1358
     620, 1429,1504,1507,1432, 1430,1505,1508,1433
     621, 1504,1579,1582,1507, 1505,1580,1583,1508
     622, 1579,1654,1657,1582, 1580,1655,1658,1583
     623, 1654,1729,1732,1657, 1655,1730,1733,1658
     624, 1729,1810,1813,1732, 1730,1811,1814,1733
     625, 1810,1897,1900,1813, 1811,1898,1901,1814
     626, 1897,1999,2002,1900, 1898,2000,2003,1901
     627, 1999,2101,2104,2002, 2000,2102,2105,2003
     628, 2101,2203,2206,2104, 2102,2204,2207,2105
     629, 2203,2305,2308,2206, 2204,2306,2309,2207
     630, 2305,2407,2410,2308, 2306,2408,2411,2309
     631, 2407,2509,2512,2410, 2408,2510,2513,2411
     632, 2509,2611,2614,2512, 2510,2612,2615,2513
     633, 2611,2713,2716,2614, 2612,2714,2717,2615
     634, 2713,2815,2818,2716, 2714,2816,2819,2717
     635, 2815,2917,2920,2818, 2816,2918,2921,2819
     636, 2917,3019,3022,2920, 2918,3020,3023,2921
     637, 3019,3121,3124,3022, 3020,3122,3125,3023
     638, 3121,3223,3226,3124, 3122,3224,3227,3125
     639, 67,169,172,70, 68,170,173,71
     640, 169,271,274,172, 170,272,275,173
     641, 271,373,376,274, 272,374,377,275
     642, 373,475,478,376, 374,476,479,377
     643, 475,577,580,478, 476,578,581,479
     644, 577,679,682,580, 578,680,683,581
     645, 679,781,784,682, 680,782,785,683
     646, 781,883,886,784, 782,884,887,785
     647, 883,985,988,886, 884,986,989,887
     648, 985,1087,1090,988, 986,1088,1091,989
     649, 1087,1189,1192,1090, 1088,1190,1193,1091
     650, 1189,1276,1279,1192, 1190,1277,1280,1193
     651, 1276,1357,1360,1279, 1277,1358,1361,1280
     652, 1357,1432,1435,1360, 1358,1433,1436,1361
     653, 1432,1507,1510,1435, 1433,1508,1511,1436
     654, 1507,1582,1585,1510, 1508,1583,1586,1511
     655, 1582,1657,1660,1585, 1583,1658,1661,1586
     656, 1657,1732,1735,1660, 1658,1733,1736,1661
     657, 1732,1813,1816,1735, 1733,1814,1817,1736
     658, 1813,1900,1903,1816, 1814,1901,1904,1817
     659, 1900,2002,2005,1903, 1901,2003,2006,1904
     660, 2002,2104,2107,2005, 2003,2105,2108,2006
     661, 2104,2206,2209,2107, 2105,2207,2210,2108
     662, 2206,2308,2311,2209, 2207,2309,2312,2210
     663, 2308,2410,2413,2311, 2309,2411,2414,2312
     664, 2410,2512,2515,2413, 2411,2513,2516,2414
     665, 2512,2614,2617,2515, 2513,2615,2618,2516
     666, 2614,2716,2719,2617, 2615,2717,2720,2618
     667, 2716,2818,2821,2719, 2717,2819,2822,2720
     668, 2818,2920,2923,2821, 2819,2921,2924,2822
     669, 2920,3022,3025,2923, 2921,3023,3026,2924
     670, 3022,3124,3127,3025, 3023,3125,3128,3026
     671, 3124,3226,3229,3127, 3125,3227,3230,3128
     672, 70,172,175,73, 71,173,176,74
     673, 172,274,277,175, 173,275,278,176
     674, 274,376,379,277, 275,377,380,278
     675, 376,478,481,379, 377,479,482,380
     676, 478,580,583,481, 479,581,584,482
     677, 580,682,685,583, 581,683,686,584
     678, 682,784,787,685, 683,785,788,686
     679, 784,886,889,787, 785,887,890,788
     680, 886,988,991,889, 887,989,992,890
     681, 988,1090,1093,991, 989,1091,1094,992
     682, 1090,1192,1195,1093, 1091,1193,1196,1094
     683, 1192,1279,1282,1195, 1193,1280,1283,1196
     684, 1279,1360,1363,1282, 1280,1361,1364,1283
     685, 1360,1435,1438,1363, 1361,1436,1439,1364
     686, 1435,1510,1513,1438, 1436,1511,1514,1439
     687, 1510,1585,1588,1513, 1511,1586,1589,1514
     688, 1585,1660,1663,1588, 1586,1661,1664,1589
     689, 1660,1735,1738,1663, 1661,1736,1739,1664
     690, 1735,1816,1819,1738, 1736,1817,1820,1739
     691, 1816,1903,1906,1819, 1817,1904,1907,1820
     692, 1903,2005,2008,1906, 1904,2006,2009,1907
     693, 2005,2107,2110,2008, 2006,2108,2111,2009
     694, 2107,2209,2212,2110, 2108,2210,2213,2111
     695, 2209,2311,2314,2212, 2210,2312,2315,2213
     696, 2311,2413,2416,2314, 2312,2414,2417,2315
     697, 2413,2515,2518,2416, 2414,2516,2519,2417
     698, 2515,2617,2620,2518, 2516,2618,2621,2519
     699, 2617,2719,2722,2620, 2618,2720,2723,2621
     700, 2719,2821,2824,2722, 2720,2822,2825,2723
     701, 2821,2923,2926,2824, 2822,2924,2927,2825
     702, 2923,3025,3028,2926, 2924,3026,3029,2927
     703, 3025,3127,3130,3028, 3026,3128,3131,3029
     704, 3127,3229,3232,3130, 3128,3230,3233,3131
     705, 73,175,178,76, 74,176,179,77
     706, 175,277,280,178, 176,278,281,179
     707, 277,379,382,280, 278,380,383,281
     708, 379,481,484,382, 380,482,485,383
     709, 481,583,586,484, 482,584,587,485
     710, 583,685,688,586, 584,686,689,587
     711, 685,787,790,688, 686,788,791,689
     712, 787,889,892,790, 788,890,893,791
     713, 889,991,994,892, 890,992,995,893
     714, 991,1093,1096,994, 992,1094,1097,995
     715, 1093,1195,1198,1096, 1094,1196,1199,1097
     716, 1195,1282,1285,1198, 1196,1283,1286,1199
     717, 1282,1363,1366,1285, 1283,1364,1367,1286
     718, 1363,1438,1441,1366, 1364,1439,1442,1367
     719, 1438,1513,1516,1441, 1439,1514,1517,1442
     720, 1513,1588,1591,1516, 1514,1589,1592,1517
     721, 1588,1663,1666,1591, 1589,1664,1667,1592
     722, 1663,1738,1741,1666, 1664,1739,1742,1667
     723, 1738,1819,1822,1741, 1739,1820,1823,1742
     724, 1819,1906,1909,1822, 1820,1907,1910,1823
     725, 1906,2008,2011,1909, 1907,2009,2012,1910
     726, 2008,2110,2113,2011, 2009,2111,2114,2012
     727, 2110,2212,2215,2113, 2111,2213,2216,2114
     728, 2212,2314,2317,2215, 2213,2315,2318,2216
     729, 2314,2416,2419,2317, 2315,2417,2420,2318
     730, 2416,2518,2521,2419, 2417,2519,2522,2420
     731, 2518,2620,2623,2521, 2519,2621,2624,2522
     732, 2620,2722,2725,2623, 2621,2723,2726,2624
     733, 2722,2824,2827,2725, 2723,2825,2828,2726
     734, 2824,2926,2929,2827, 2825,2927,2930,2828
     735, 2926,3028,3031,2929, 2927,3029,3032,2930
     736, 3028,3130,3133,3031, 3029,3131,3134,3032
     737, 3130,3232,3235,3133, 3131,3233,3236,3134
     738, 76,178,181,79, 77,179,182,80
     739, 178,280,283,181, 179,281,284,182
     740, 280,382,385,283, 281,383,386,284
     741, 382,484,487,385, 383,485,488,386
     742, 484,586,589,487, 485,587,590,488
     743, 586,688,691,589, 587,689,692,590
     744, 688,790,793,691, 689,791,794,692
     745, 790,892,895,793, 791,893,896,794
     746, 892,994,997,895, 893,995,998,896
     747, 994,1096,1099,997, 995,1097,1100,998
     748, 1096,1198,1201,1099, 1097,1199,1202,1100
     749, 1198,1285,1288,1201, 1199,1286,1289,1202
     750, 1285,1366,1369,1288, 1286,1367,1370,1289
     751, 1366,1441,1444,1369, 1367,1442,1445,1370
     752, 1441,1516,1519,1444, 1442,1517,1520,1445
     753, 1516,1591,1594,1519, 1517,1592,1595,1520
     754, 1591,1666,1669,1594, 1592,1667,1670,1595
     755, 1666,1741,1744,1669, 1667,1742,1745,1670
     756, 1741,1822,1825,1744, 1742,1823,1826,1745
     757, 1822,1909,1912,1825, 1823,1910,1913,1826
     758, 1909,2011,2014,1912, 1910,2012,2015,1913
     759, 2011,2113,2116,2014, 2012,2114,2117,2015
     760, 2113,2215,2218,2116, 2114,2216,2219,2117
     761, 2215,2317,2320,2218, 2216,2318,2321,2219
     762, 2317,2419,2422,2320, 2318,2420,2423,2321
     763, 2419,2521,2524,2422, 2420,2522,2525,2423
     764, 2521,2623,2626,2524, 2522,2624,2627,2525
     765, 2623,2725,2728,2626, 2624,2726,2729,2627
     766, 2725,2827,2830,2728, 2726,2828,2831,2729
     767, 2827,2929,2932,2830, 2828,2930,2933,2831
     768, 2929,3031,3034,2932, 2930,3032,3035,2933
     769, 3031,3133,3136,3034, 3032,3134,3137,3035
     770, 3133,3235,3238,3136, 3134,3236,3239,3137
     771, 79,181,184,82, 80,182,185,83
     772, 181,283,286,184, 182,284,287,185
     773, 283,385,388,286, 284,386,389,287
     774, 385,487,490,388, 386,488,491,389
     775, 487,589,592,490, 488,590,593,491
     776, 589,691,694,592, 590,692,695,593
     777, 691,793,796,694, 692,794,797,695
     778, 793,895,898,796, 794,896,899,797
     779, 895,997,1000,898, 896,998,1001,899
     780, 997,1099,1102,1000, 998,1100,1103,1001
     781, 1099,1201,1204,1102, 1100,1202,1205,1103
     782, 1201,1288,1291,1204, 1202,1289,1292,1205
     783, 1288,1369,1372,1291, 1289,1370,1373,1292
     784, 1369,1444,1447,1372, 1370,1445,1448,1373
     785, 1444,1519,1522,1447, 1445,1520,1523,1448
     786, 1519,1594,1597,1522, 1520,1595,1598,1523
     787, 1594,1669,1672,1597, 1595,1670,1673,1598
     788, 1669,1744,1747,1672, 1670,1745,1748,1673
     789, 1744,1825,1828,1747, 1745,1826,1829,1748
     790, 1825,1912,1915,1828, 1826,1913,1916,1829
     791, 1912,2014,2017,1915, 1913,2015,2018,1916
     792, 2014,2116,2119,2017, 2015,2117,2120,2018
     793, 2116,2218,2221,2119, 2117,2219,2222,2120
     794, 2218,2320,2323,2221, 2219,2321,2324,2222
     795, 2320,2422,2425,2323, 2321,2423,2426,2324
     796, 2422,2524,2527,2425, 2423,2525,2528,2426
     797, 2524,2626,2629,2527, 2525,2627,2630,2528
     798, 2626,2728,2731,2629, 2627,2729,2732,2630
     799, 2728,2830,2833,2731, 2729,2831,2834,2732
     800, 2830,2932,2935,2833, 2831,2933,2936,2834
     801, 2932,3034,3037,2935, 2933,3035,3038,2936
     802, 3034,3136,3139,3037, 3035,3137,3140,3038
     803, 3136,3238,3241,3139, 3137,3239,3242,3140
     804, 82,184,187,85, 83,185,188,86
     805, 184,286,289,187, 185,287,290,188
     806, 286,388,391,289, 287,389,392,290
     807, 388,490,493,391, 389,491,494,392
     808, 490,592,595,493, 491,593,596,494
     809, 592,694,697,595, 593,695,698,596
     810, 694,796,799,697, 695,797,800,698
     811, 796,898,901,799, 797,899,902,800
     812, 898,1000,1003,901, 899,1001,1004,902
     813, 1000,1102,1105,1003, 1001,1103,1106,1004
     814, 1102,1204,1207,1105, 1103,1205,1208,1106
     815, 1204,1291,1294,1207, 1205,1292,1295,1208
     816, 1291,1372,1375,1294, 1292,1373,1376,1295
     817, 1372,1447,1450,1375, 1373,1448,1451,1376
     818, 1447,1522,1525,1450, 1448,1523,1526,1451
     819, 1522,1597,1600,1525, 1523,1598,1601,1526
     820, 1597,1672,1675,1600, 1598,1673,1676,1601
     821, 1672,1747,1750,1675, 1673,1748,1751,1676
     822, 1747,1828,1831,1750, 1748,1829,1832,1751
     823, 1828,1915,1918,1831, 1829,1916,1919,1832
     824, 1915,2017,2020,1918, 1916,2018,2021,1919
     825, 2017,2119,2122,2020, 2018,2120,2123,2021
     826, 2119,2221,2224,2122, 2120,2222,2225,2123
     827, 2221,2323,2326,2224, 2222,2324,2327,2225
     828, 2323,2425,2428,2326, 2324,2426,2429,2327
     829, 2425,2527,2530,2428, 2426,2528,2531,2429
     830, 2527,2629,2632,2530, 2528,2630,2633,2531
     831, 2629,2731,2734,2632, 2630,2732,2735,2633
     832, 2731,2833,2836,2734, 2732,2834,2837,2735
     833, 2833,2935,2938,2836, 2834,2936,2939,2837
     834, 2935,3037,3040,2938, 2936,3038,3041,2939
     835, 3037,3139,3142,3040, 3038,3140,3143,3041
     836, 3139,3241,3244,3142, 3140,3242,3245,3143
     837, 85,187,190,88, 86,188,191,89
     838, 187,289,292,190, 188,290,293,191
     839, 289,391,394,292, 290,392,395,293
     840, 391,493,496,394, 392,494,497,395
     841, 493,595,598,496, 494,596,599,497
     842, 595,697,700,598, 596,698,701,599
     843, 697,799,802,700, 698,800,803,701
     844, 799,901,904,802, 800,902,905,803
     845, 901,1003,1006,904, 902,1004,1007,905
     846, 1003,1105,1108,1006, 1004,1106,1109,1007
     847, 1105,1207,1210,1108, 1106,1208,1211,1109
     848, 1207,1294,1297,1210, 1208,1295,1298,1211
     849, 1294,1375,1378,1297, 1295,1376,1379,1298
     850, 1375,1450,1453,1378, 1376,1451,1454,1379
     851, 1450,1525,1528,1453, 1451,1526,1529,1454
     852, 1525,1600,1603,1528, 1526,1601,1604,1529
     853, 1600,1675,1678,1603, 1601,1676,1679,1604
     854, 1675,1750,1753,1678, 1676,1751,1754,1679
     855, 1750,1831,1834,1753, 1751,1832,1835,1754
     856, 1831,1918,1921,1834, 1832,1919,1922,1835
     857, 1918,2020,2023,1921, 1919,2021,2024,1922
     858, 2020,2122,2125,2023, 2021,2123,2126,2024
     859, 2122,2224,2227,2125, 2123,2225,2228,2126
     860, 2224,2326,2329,2227, 2225,2327,2330,2228
     861, 2326,2428,2431,2329, 2327,2429,2432,2330
     862, 2428,2530,2533,2431, 2429,2531,2534,2432
     863, 2530,2632,2635,2533, 2531,2633,2636,2534
     864, 2632,2734,2737,2635, 2633,2735,2738,2636
     865, 2734,2836,2839,2737, 2735,2837,2840,2738
     866, 2836,2938,2941,2839, 2837,2939,2942,2840
     867, 2938,3040,3043,2941, 2939,3041,3044,2942
     868, 3040,3142,3145,3043, 3041,3143,3146,3044
     869, 3142,3244,3247,3145, 3143,3245,3248,3146
     870, 88,190,193,91, 89,191,194,92
     871, 190,292,295,193, 191,293,296,194
     872, 292,394,397,295, 293,395,398,296
     873, 394,496,499,397, 395,497,500,398
     874, 496,598,601,499, 497,599,602,500
     875, 598,700,703,601, 599,701,704,602
     876, 700,802,805,703, 701,803,806,704
     877, 802,904,907,805, 803,905,908,806
     878, 904,1006,1009,907, 905,1007,1010,908
     879, 1006,1108,1111,1009, 1007,1109,1112,1010
     880, 1108,1210,1213,1111, 1109,1211,1214,1112
     881, 1210,1297,1300,1213, 1211,1298,1301,1214
     882, 1297,1378,1381,1300, 1298,1379,1382,1301
     883, 1378,1453,1456,1381, 1379,1454,1457,1382
     884, 1453,1528,1531,1456, 1454,1529,1532,1457
     885, 1528,1603,1606,1531, 1529,1604,1607,1532
     886, 1603,1678,1681,1606, 1604,1679,1682,1607
     887, 1678,1753,1756,1681, 1679,1754,1757,1682
     888, 1753,1834,1837,1756, 1754,1835,1838,1757
     889, 1834,1921,1924,1837, 1835,1922,1925,1838
     890, 1921,2023,2026,1924, 1922,2024,2027,1925
     891, 2023,2125,2128,2026, 2024,2126,2129,2027
     892, 2125,2227,2230,2128, 2126,2228,2231,2129
     893, 2227,2329,2332,2230, 2228,2330,2333,2231
     894, 2329,2431,2434,2332, 2330,2432,2435,2333
     895, 2431,2533,2536,2434, 2432,2534,2537,2435
     896, 2533,2635,2638,2536, 2534,2636,2639,2537
     897, 2635,2737,2740,2638, 2636,2738,2741,2639
     898, 2737,2839,2842,2740, 2738,2840,2843,2741
     899, 2839,2941,2944,2842, 2840,2942,2945,2843
     900, 2941,3043,3046,2944, 2942,3044,3047,2945
     901, 3043,3145,3148,3046, 3044,3146,3149,3047
     902, 3145,3247,3250,3148, 3146,3248,3251,3149
     903, 91,193,196,94, 92,194,197,95
     904, 193,295,298,196, 194,296,299,197
     905, 295,397,400,298, 296,398,401,299
     906, 397,499,502,400, 398,500,503,401
     907, 499,601,604,502, 500,602,605,503
     908, 601,703,706,604, 602,704,707,605
     909, 703,805,808,706, 704,806,809,707
     910, 805,907,910,808, 806,908,911,809
     911, 907,1009,1012,910, 908,1010,1013,911
     912, 1009,1111,1114,1012, 1010,1112,1115,1013
     913, 1111,1213,1216,1114, 1112,1214,1217,1115
     914, 1213,1300,1303,1216, 1214,1301,1304,1217
     915, 1300,1381,1384,1303, 1301,1382,1385,1304
     916, 1381,1456,1459,1384, 1382,1457,1460,1385
     917, 1456,1531,1534,1459, 1457,1532,1535,1460
     918, 1531,1606,1609,1534, 1532,1607,1610,1535
     919, 1606,1681,1684,1609, 1607,1682,1685,1610
     920, 1681,1756,1759,1684, 1682,1757,1760,1685
     921, 1756,1837,1840,1759, 1757,1838,1841,1760
     922, 1837,1924,1927,1840, 1838,1925,1928,1841
     923, 1924,2026,2029,1927, 1925,2027,2030,1928
     924, 2026,2128,2131,2029, 2027,2129,2132,2030
     925, 2128,2230,2233,2131, 2129,2231,2234,2132
     926, 2230,2332,2335,2233, 2231,2333,2336,2234
     927, 2332,2434,2437,2335, 2333,2435,2438,2336
     928, 2434,2536,2539,2437, 2435,2537,2540,2438
     929, 2536,2638,2641,2539, 2537,2639,2642,2540
     930, 2638,2740,2743,2641, 2639,2741,2744,2642
     931, 2740,2842,2845,2743, 2741,2843,2846,2744
     932, 2842,2944,2947,2845, 2843,2945,2948,2846
     933, 2944,3046,3049,2947, 2945,3047,3050,2948
     934, 3046,3148,3151,3049, 3047,3149,3152,3050
     935, 3148,3250,3253,3151, 3149,3251,3254,3152
     936, 94,196,199,97, 95,197,200,98
     937, 196,298,301,199, 197,299,302,200
     938, 298,400,403,301, 299,401,404,302
     939, 400,502,505,403, 401,503,506,404
     940, 502,604,607,505, 503,605,608,506
     941, 604,706,709,607, 605,707,710,608
     942, 706,808,811,709, 707,809,812,710
     943, 808,910,913,811, 809,911,914,812
     944, 910,1012,1015,913, 911,1013,1016,914
     945, 1012,1114,1117,1015, 1013,1115,1118,1016
     946, 1114,1216,1219,1117, 1115,1217,1220,1118
     947, 1216,1303,1306,1219, 1217,1304,1307,1220
     948, 1303,1384,1387,1306, 1304,1385,1388,1307
     949, 1384,1459,1462,1387, 1385,1460,1463,1388
     950, 1459,1534,1537,1462, 1460,1535,1538,1463
     951, 1534,1609,1612,1537, 1535,1610,1613,1538
     952, 1609,1684,1687,1612, 1610,1685,1688,1613
     953, 1684,1759,1762,1687, 1685,1760,1763,1688
     954, 1759,1840,1843,1762, 1760,1841,1844,1763
     955, 1840,1927,1930,1843, 1841,1928,1931,1844
     956, 1927,2029,2032,1930, 1928,2030,2033,1931
     957, 2029,2131,2134,2032, 2030,2132,2135,2033
     958, 2131,2233,2236,2134, 2132,2234,2237,2135
     959, 2233,2335,2338,2236, 2234,2336,2339,2237
     960, 2335,2437,2440,2338, 2336,2438,2441,2339
     961, 2437,2539,2542,2440, 2438,2540,2543,2441
     962, 2539,2641,2644,2542, 2540,2642,2645,2543
     963, 2641,2743,2746,2644, 2642,2744,2747,2645
     964, 2743,2845,2848,2746, 2744,2846,2849,2747
     965, 2845,2947,2950,2848, 2846,2948,2951,2849
     966, 2947,3049,3052,2950, 2948,3050,3053,2951
     967, 3049,3151,3154,3052, 3050,3152,3155,3053
     968, 3151,3253,3256,3154, 3152,3254,3257,3155
     969, 97,199,202,100, 98,200,203,101
     970, 199,301,304,202, 200,302,305,203
     971, 301,403,406,304, 302,404,407,305
     972, 403,505,508,406, 404,506,509,407
     973, 505,607,610,508, 506,608,611,509
     974, 607,709,712,610, 608,710,713,611
     975, 709,811,814,712, 710,812,815,713
     976, 811,913,916,814, 812,914,917,815
     977, 913,1015,1018,916, 914,1016,1019,917
     978, 1015,1117,1120,1018, 1016,1118,1121,1019
     979, 1117,1219,1222,1120, 1118,1220,1223,1121
     980, 1219,1306,1309,1222, 1220,1307,1310,1223
     981, 1306,1387,1390,1309, 1307,1388,1391,1310
     982, 1387,1462,1465,1390, 1388,1463,1466,1391
     983, 1462,1537,1540,1465, 1463,1538,1541,1466
     984, 1537,1612,1615,1540, 1538,1613,1616,1541
     985, 1612,1687,1690,1615, 1613,1688,1691,1616
     986, 1687,1762,1765,1690, 1688,1763,1766,1691
     987, 1762,1843,1846,1765, 1763,1844,1847,1766
     988, 1843,1930,1933,1846, 1844,1931,1934,1847
     989, 1930,2032,2035,1933, 1931,2033,2036,1934
     990, 2032,2134,2137,2035, 2033,2135,2138,2036
     991, 2134,2236,2239,2137, 2135,2237,2240,2138
     992, 2236,2338,2341,2239, 2237,2339,2342,2240
     993, 2338,2440,2443,2341, 2339,2441,2444,2342
     994, 2440,2542,2545,2443, 2441,2543,2546,2444
     995, 2542,2644,2647,2545, 2543,2645,2648,2546
     996, 2644,2746,2749,2647, 2645,2747,2750,2648
     997, 2746,2848,2851,2749, 2747,2849,2852,2750
     998, 2848,2950,2953,2851, 2849,2951,2954,2852
     999, 2950,3052,3055,2953, 2951,3053,3056,2954
    1000, 3052,3154,3157,3055, 3053,3155,3158,3056
    1001, 3154,3256,3259,3157, 3155,3257,3260,3158
    1002, 2,104,107,5, 3,105,108,6
    1003, 104,206,209,107, 105,207,210,108
    1004, 206,308,311,209, 207,309,312,210
    1005, 308,410,413,311, 309,411,414,312
    1006, 410,512,515,413, 411,513,516,414
    1007, 512,614,617,515, 513,615,618,516
    1008, 614,716,719,617, 615,717,720,618
    1009, 716,818,821,719, 717,819,822,720
    1010, 818,920,923,821, 819,921,924,822
    1011, 920,1022,1025,923, 921,1023,1026,924
    1012, 1022,1124,1127,1025, 1023,1125,1128,1026
    1013, 1124,1226,1229,1127, 1125,1227,1230,1128
    1014, 1226,1313,1316,1229, 1227,1314,1317,1230
    1015, 1313,1394,1397,1316, 1314,1395,1398,1317
    1016, 1394,1469,1472,1397, 1395,1470,1473,1398
    1017, 1469,1544,1547,1472, 1470,1545,1548,1473
    1018, 1544,1619,1622,1547, 1545,1620,1623,1548
    1019, 1619,1694,1697,1622, 1620,1695,1698,1623
    1020, 1694,1769,1772,1697, 1695,1770,1773,1698
    1021, 1769,1850,1853,1772, 1770,1851,1854,1773
    1022, 1850,1937,1940,1853, 1851,1938,1941,1854
    1023, 1937,2039,2042,1940, 1938,2040,2043,1941
    1024, 2039,2141,2144,2042, 2040,2142,2145,2043
    1025, 2141,2243,2246,2144, 2142,2244,2247,2145
    1026, 2243,2345,2348,2246, 2244,2346,2349,2247
    1027, 2345,2447,2450,2348, 2346,2448,2451,2349
    1028, 2447,2549,2552,2450, 2448,2550,2553,2451
    1029, 2549,2651,2654,2552, 2550,2652,2655,2553
    1030, 2651,2753,2756,2654, 2652,2754,2757,2655
    1031, 2753,2855,2858,2756, 2754,2856,2859,2757
    1032, 2855,2957,2960,2858, 2856,2958,2961,2859
    1033, 2957,3059,3062,2960, 2958,3060,3063,2961
    1034, 3059,3161,3164,3062, 3060,3162,3165,3063
    1035, 5,107,110,8, 6,108,111,9
    1036, 107,209,212,110, 108,210,213,111
    1037, 209,311,314,212, 210,312,315,213
    1038, 311,413,416,314, 312,414,417,315
    1039, 413,515,518,416, 414,516,519,417
    1040, 515,617,620,518, 516,618,621,519
    1041, 617,719,722,620, 618,720,723,621
    1042, 719,821,824,722, 720,822,825,723
    1043, 821,923,926,824, 822,924,927,825
    1044, 923,1025,1028,926, 924,1026,1029,927
    1045, 1025,1127,1130,1028, 1026,1128,1131,1029
    1046, 1127,1229,1232,1130, 1128,1230,1233,1131
    1047, 1229,1316,1319,1232, 1230,1317,1320,1233
    1048, 1316,1397,1400,1319, 1317,1398,1401,1320
    1049, 1397,1472,1475,1400, 1398,1473,1476,1401
    1050, 1472,1547,1550,1475, 1473,1548,1551,1476
    1051, 1547,1622,1625,1550, 1548,1623,1626,1551
    1052, 1622,1697,1700,1625, 1623,1698,1701,1626
    1053, 1697,1772,1775,1700, 1698,1773,1776,1701
    1054, 1772,1853,1856,1775, 1773,1854,1857,1776
    1055, 1853,1940,1943,1856, 1854,1941,1944,1857
    1056, 1940,2042,2045,1943, 1941,2043,2046,1944
    1057, 2042,2144,2147,2045, 2043,2145,2148,2046
    1058, 2144,2246,2249,2147, 2145,2247,2250,2148
    1059, 2246,2348,2351,2249, 2247,2349,2352,2250
    1060, 2348,2450,2453,2351, 2349,2451,2454,2352
    1061, 2450,2552,2555,2453, 2451,2553,2556,2454
    1062, 2552,2654,2657,2555, 2553,2655,2658,2556
    1063, 2654,2756,2759,2657, 2655,2757,2760,2658
    1064, 2756,2858,2861,2759, 2757,2859,2862,2760
    1065, 2858,2960,2963,2861, 2859,2961,2964,2862
    1066, 2960,3062,3065,2963, 2961,3063,3066,2964
    1067, 3062,3164,3167,3065, 3063,3165,3168,3066
    1068, 8,110,113,11, 9,111,114,12
    1069, 110,212,215,113, 111,213,216,114
    1070, 212,314,317,215, 213,315,318,216
    1071, 314,416,419,317, 315,417,420,318
    1072, 416,518,521,419, 417,519,522,420
    1073, 518,620,623,521, 519,621,624,522
    1074, 620,722,725,623, 621,723,726,624
    1075, 722,824,827,725, 723,825,828,726
    1076, 824,926,929,827, 825,927,930,828
    1077, 926,1028,1031,929, 927,1029,1032,930
    1078, 1028,1130,1133,1031, 1029,1131,1134,1032
    1079, 1130,1232,1235,1133, 1131,1233,1236,1134
    1080, 1232,1319,1322,1235, 1233,1320,1323,1236
    1081, 1319,1400,1403,1322, 1320,1401,1404,1323
    1082, 1400,1475,1478,1403, 1401,1476,1479,1404
    1083, 1475,1550,1553,1478, 1476,1551,1554,1479
    1084, 1550,1625,1628,1553, 1551,1626,1629,1554
    1085, 1625,1700,1703,1628, 1626,1701,1704,1629
    1086, 1700,1775,1778,1703, 1701,1776,1779,1704
    1087, 1775,1856,1859,1778, 1776,1857,1860,1779
    1088, 1856,1943,1946,1859, 1857,1944,1947,1860
    1089, 1943,2045,2048,1946, 1944,2046,2049,1947
    1090, 2045,2147,2150,2048, 2046,2148,2151,2049
    1091, 2147,2249,2252,2150, 2148,2250,2253,2151
    1092, 2249,2351,2354,2252, 2250,2352,2355,2253
    1093, 2351,2453,2456,2354, 2352,2454,2457,2355
    1094, 2453,2555,2558,2456, 2454,2556,2559,2457
    1095, 2555,2657,2660,2558, 2556,2658,2661,2559
    1096, 2657,2759,2762,2660, 2658,2760,2763,2661
    1097, 2759,2861,2864,2762, 2760,2862,2865,2763
    1098, 2861,2963,2966,2864, 2862,2964,2967,2865
    1099, 2963,3065,3068,2966, 2964,3066,3069,2967
    1100, 3065,3167,3170,3068, 3066,3168,3171,3069
    1101, 11,113,116,14, 12,114,117,15
    1102, 113,215,218,116, 114,216,219,117
    1103, 215,317,320,218, 216,318,321,219
    1104, 317,419,422,320, 318,420,423,321
    1105, 419,521,524,422, 420,522,525,423
    1106, 521,623,626,524, 522,624,627,525
    1107, 623,725,728,626, 624,726,729,627
    1108, 725,827,830,728, 726,828,831,729
    1109, 827,929,932,830, 828,930,933,831
    1110, 929,1031,1034,932, 930,1032,1035,933
    1111, 1031,1133,1136,1034, 1032,1134,1137,1035
    1112, 1133,1235,1238,1136, 1134,1236,1239,1137
    1113, 1235,1322,1325,1238, 1236,1323,1326,1239
    1114, 1322,1403,1406,1325, 1323,1404,1407,1326
    1115, 1403,1478,1481,1406, 1404,1479,1482,1407
    1116, 1478,1553,1556,1481, 1479,1554,1557,1482
    1117, 1553,1628,1631,1556, 1554,1629,1632,1557
    1118, 1628,1703,1706,1631, 1629,1704,1707,1632
    1119, 1703,1778,1781,1706, 1704,1779,1782,1707
    1120, 1778,1859,1862,1781, 1779,1860,1863,1782
    1121, 1859,1946,1949,1862, 1860,1947,1950,1863
    1122, 1946,2048,2051,1949, 1947,2049,2052,1950
    1123, 2048,2150,2153,2051, 2049,2151,2154,2052
    1124, 2150,2252,2255,2153, 2151,2253,2256,2154
    1125, 2252,2354,2357,2255, 2253,2355,2358,2256
    1126, 2354,2456,2459,2357, 2355,2457,2460,2358
    1127, 2456,2558,2561,2459, 2457,2559,2562,2460
    1128, 2558,2660,2663,2561, 2559,2661,2664,2562
    1129, 2660,2762,2765,2663, 2661,2763,2766,2664
    1130, 2762,2864,2867,2765, 2763,2865,2868,2766
    1131, 2864,2966,2969,2867, 2865,2967,2970,2868
    1132, 2966,3068,3071,2969, 2967,3069,3072,2970
    1133, 3068,3170,3173,3071, 3069,3171,3174,3072
    1134, 14,116,119,17, 15,117,120,18
    1135, 116,218,221,119, 117,219,222,120
    1136, 218,320,323,221, 219,321,324,222
    1137, 320,422,425,323, 321,423,426,324
    1138, 422,524,527,425, 423,525,528,426
    1139, 524,626,629,527, 525,627,630,528
    1140, 626,728,731,629, 627,729,732,630
    1141, 728,830,833,731, 729,831,834,732
    1142, 830,932,935,833, 831,933,936,834
    1143, 932,1034,1037,935, 933,1035,1038,936
    1144, 1034,1136,1139,1037, 1035,1137,1140,1038
    1145, 1136,1238,1241,1139, 1137,1239,1242,1140
    1146, 1238,1325,1328,1241, 1239,1326,1329,1242
    1147, 1325,1406,1409,1328, 1326,1407,1410,1329
    1148, 1406,1481,1484,1409, 1407,1482,1485,1410
    1149, 1481,1556,1559,1484, 1482,1557,1560,1485
    1150, 1556,1631,1634,1559, 1557,1632,1635,1560
    1151, 1631,1706,1709,1634, 1632,1707,1710,1635
    1152, 1706,1781,1784,1709, 1707,1782,1785,1710
    1153, 1781,1862,1865,1784, 1782,1863,1866,1785
    1154, 1862,1949,1952,1865, 1863,1950,1953,1866
    1155, 1949,2051,2054,1952, 1950,2052,2055,1953
    1156, 2051,2153,2156,2054, 2052,2154,2157,2055
    1157, 2153,2255,2258,2156, 2154,2256,2259,2157
    1158, 2255,2357,2360,2258, 2256,2358,2361,2259
    1159, 2357,2459,2462,2360, 2358,2460,2463,2361
    1160, 2459,2561,2564,2462, 2460,2562,2565,2463
    1161, 2561,2663,2666,2564, 2562,2664,2667,2565
    1162, 2663,2765,2768,2666, 2664,2766,2769,2667
    1163, 2765,2867,2870,2768, 2766,2868,2871,2769
    1164, 2867,2969,2972,2870, 2868,2970,2973,2871
    1165, 2969,3071,3074,2972, 2970,3072,3075,2973
    1166, 3071,3173,3176,3074, 3072,3174,3177,3075
    1167, 17,119,122,20, 18,120,123,21
    1168, 119,221,224,122, 120,222,225,123
    1169, 221,323,326,224, 222,324,327,225
    1170, 323,425,428,326, 324,426,429,327
    1171, 425,527,530,428, 426,528,531,429
    1172, 527,629,632,530, 528,630,633,531
    1173, 629,731,734,632, 630,732,735,633
    1174, 731,833,836,734, 732,834,837,735
    1175, 833,935,938,836, 834,936,939,837
    1176, 935,1037,1040,938, 936,1038,1041,939
    1177, 1037,1139,1142,1040, 1038,1140,1143,1041
    1178, 1139,1241,1244,1142, 1140,1242,1245,1143
    1179, 1241,1328,1331,1244, 1242,1329,1332,1245
    1180, 1328,1409,1412,1331, 1329,1410,1413,1332
    1181, 1409,1484,1487,1412, 1410,1485,1488,1413
    1182, 1484,1559,1562,1487, 1485,1560,1563,1488
    1183, 1559,1634,1637,1562, 1560,1635,1638,1563
    1184, 1634,1709,1712,1637, 1635,1710,1713,1638
    1185, 1709,1784,1787,1712, 1710,1785,1788,1713
    1186, 1784,1865,1868,1787, 1785,1866,1869,1788
    1187, 1865,1952,1955,1868, 1866,1953,1956,1869
    1188, 1952,2054,2057,1955, 1953,2055,2058,1956
    1189, 2054,2156,2159,2057, 2055,2157,2160,2058
    1190, 2156,2258,2261,2159, 2157,2259,2262,2160
    1191, 2258,2360,2363,2261, 2259,2361,2364,2262
    1192, 2360,2462,2465,2363, 2361,2463,2466,2364
    1193, 2462,2564,2567,2465, 2463,2565,2568,2466
    1194, 2564,2666,2669,2567, 2565,2667,2670,2568
    1195, 2666,2768,2771,2669, 2667,2769,2772,2670
    1196, 2768,2870,2873,2771, 2769,2871,2874,2772
    1197, 2870,2972,2975,2873, 2871,2973,2976,2874
    1198, 2972,3074,3077,2975, 2973,3075,3078,2976
    1199, 3074,3176,3179,3077, 3075,3177,3180,3078
    1200, 20,122,125,23, 21,123,126,24
    1201, 122,224,227,125, 123,225,228,126
    1202, 224,326,329,227, 225,327,330,228
    1203, 326,428,431,329, 327,429,432,330
    1204, 428,530,533,431, 429,531,534,432
    1205, 530,632,635,533, 531,633,636,534
    1206, 632,734,737,635, 633,735,738,636
    1207, 734,836,839,737, 735,837,840,738
    1208, 836,938,941,839, 837,939,942,840
    1209, 938,1040,1043,941, 939,1041,1044,942
    1210, 1040,1142,1145,1043, 1041,1143,1146,1044
    1211, 1142,1244,1247,1145, 1143,1245,1248,1146
    1212, 1244,1331,1334,1247, 1245,1332,1335,1248
    1213, 1331,1412,1415,1334, 1332,1413,1416,1335
    1214, 1412,1487,1490,1415, 1413,1488,1491,1416
    1215, 1487,1562,1565,1490, 1488,1563,1566,1491
    1216, 1562,1637,1640,1565, 1563,1638,1641,1566
    1217, 1637,1712,1715,1640, 1638,1713,1716,1641
    1218, 1712,1787,1790,1715, 1713,1788,1791,1716
    1219, 1787,1868,1871,1790, 1788,1869,1872,1791
    1220, 1868,1955,1958,1871, 1869,1956,1959,1872
    1221, 1955,2057,2060,1958, 1956,2058,2061,1959
    1222, 2057,2159,2162,2060, 2058,2160,2163,2061
    1223, 2159,2261,2264,2162, 2160,2262,2265,2163
    1224, 2261,2363,2366,2264, 2262,2364,2367,2265
    1225, 2363,2465,2468,2366, 2364,2466,2469,2367
    1226, 2465,2567,2570,2468, 2466,2568,2571,2469
    1227, 2567,2669,2672,2570, 2568,2670,2673,2571
    1228, 2669,2771,2774,2672, 2670,2772,2775,2673
    1229, 2771,2873,2876,2774, 2772,2874,2877,2775
    1230, 2873,2975,2978,2876, 2874,2976,2979,2877
    1231, 2975,3077,3080,2978, 2976,3078,3081,2979
    1232, 3077,3179,3182,3080, 3078,3180,3183,3081
    1233, 23,125,128,26, 24,126,129,27
    1234, 125,227,230,128, 126,228,231,129
    1235, 227,329,332,230, 228,330,333,231
    1236, 329,431,434,332, 330,432,435,333
    1237, 431,533,536,434, 432,534,537,435
    1238, 533,635,638,536, 534,636,639,537
    1239, 635,737,740,638, 636,738,741,639
    1240, 737,839,842,740, 738,840,843,741
    1241, 839,941,944,842, 840,942,945,843
    1242, 941,1043,1046,944, 942,1044,1047,945
    1243, 1043,1145,1148,1046, 1044,1146,1149,1047
    1244, 1145,1247,1250,1148, 1146,1248,1251,1149
    1245, 1247,1334,1337,1250, 1248,1335,1338,1251
    1246, 1334,1415,1418,1337, 1335,1416,1419,1338
    1247, 1415,1490,1493,1418, 1416,1491,1494,1419
    1248, 1490,1565,1568,1493, 1491,1566,1569,1494
    1249, 1565,1640,1643,1568, 1566,1641,1644,1569
    1250, 1640,1715,1718,1643, 1641,1716,1719,1644
    1251, 1715,1790,1793,1718, 1716,1791,1794,1719
    1252, 1790,1871,1874,1793, 1791,1872,1875,1794
    1253, 1871,1958,1961,1874, 1872,1959,1962,1875
    1254, 1958,2060,2063,1961, 1959,2061,2064,1962
    1255, 2060,2162,2165,2063, 2061,2163,2166,2064
    1256, 2162,2264,2267,2165, 2163,2265,2268,2166
    1257, 2264,2366,2369,2267, 2265,2367,2370,2268
    1258, 2366,2468,2471,2369, 2367,2469,2472,2370
    1259, 2468,2570,2573,2471, 2469,2571,2574,2472
    1260, 2570,2672,2675,2573, 2571,2673,2676,2574
    1261, 2672,2774,2777,2675, 2673,2775,2778,2676
    1262, 2774,2876,2879,2777, 2775,2877,2880,2778
    1263, 2876,2978,2981,2879, 2877,2979,2982,2880
    1264, 2978,3080,3083,2981, 2979,3081,3084,2982
    1265, 3080,3182,3185,3083, 3081,3183,3186,3084
    1266, 26,128,131,29, 27,129,132,30
    1267, 128,230,233,131, 129,231,234,132
    1268, 230,332,335,233, 231,333,336,234
    1269, 332,434,437,335, 333,435,438,336
    1270, 434,536,539,437, 435,537,540,438
    1271, 536,638,641,539, 537,639,642,540
    1272, 638,740,743,641, 639,741,744,642
    1273, 740,842,845,743, 741,843,846,744
    1274, 842,944,947,845, 843,945,948,846
    1275, 944,1046,1049,947, 945,1047,1050,948
    1276, 1046,1148,1151,1049, 1047,1149,1152,1050
    1277, 1148,1250,1253,1151, 1149,1251,1254,1152
    1278, 1250,1337,1340,1253, 1251,1338,1341,1254
    1279, 1337,1418,1421,1340, 1338,1419,1422,1341
    1280, 1418,1493,1496,1421, 1419,1494,1497,1422
    1281, 1493,1568,1571,1496, 1494,1569,1572,1497
    1282, 1568,1643,1646,1571, 1569,1644,1647,1572
    1283, 1643,1718,1721,1646, 1644,1719,1722,1647
    1284, 1718,1793,1796,1721, 1719,1794,1797,1722
    1285, 1793,1874,1877,1796, 1794,1875,1878,1797
    1286, 1874,1961,1964,1877, 1875,1962,1965,1878
    1287, 1961,2063,2066,1964, 1962,2064,2067,1965
    1288, 2063,2165,2168,2066, 2064,2166,2169,2067
    1289, 2165,2267,2270,2168, 2166,2268,2271,2169
    1290, 2267,2369,2372,2270, 2268,2370,2373,2271
    1291, 2369,2471,2474,2372, 2370,2472,2475,2373
    1292, 2471,2573,2576,2474, 2472,2574,2577,2475
    1293, 2573,2675,2678,2576, 2574,2676,2679,2577
    1294, 2675,2777,2780,2678, 2676,2778,2781,2679
    1295, 2777,2879,2882,2780, 2778,2880,2883,2781
    1296, 2879,2981,2984,2882, 2880,2982,2985,2883
    1297, 2981,3083,3086,2984, 2982,3084,3087,2985
    1298, 3083,3185,3188,3086, 3084,3186,3189,3087
    1299, 29,131,134,32, 30,132,135,33
    1300, 131,233,236,134, 132,234,237,135
    1301, 233,335,338,236, 234,336,339,237
    1302, 335,437,440,338, 336,438,441,339
    1303, 437,539,542,440, 438,540,543,441
    1304, 539,641,644,542, 540,642,645,543
    1305, 641,743,746,644, 642,744,747,645
    1306, 743,845,848,746, 744,846,849,747
    1307, 845,947,950,848, 846,948,951,849
    1308, 947,1049,1052,950, 948,1050,1053,951
    1309, 1049,1151,1154,1052, 1050,1152,1155,1053
    1310, 1151,1253,1256,1154, 1152,1254,1257,1155
    1311, 1253,1340,1343,1256, 1254,1341,1344,1257
    1312, 1340,1421,1424,1343, 1341,1422,1425,1344
    1313, 1421,1496,1499,1424, 1422,1497,1500,1425
    1314, 1496,1571,1574,1499, 1497,1572,1575,1500
    1315, 1571,1646,1649,1574, 1572,1647,1650,1575
    1316, 1646,1721,1724,1649, 1647,1722,1725,1650
    1317, 1721,1796,1799,1724, 1722,1797,1800,1725
    1318, 1796,1877,1880,1799, 1797,1878,1881,1800
    1319, 1877,1964,1967,1880, 1878,1965,1968,1881
    1320, 1964,2066,2069,1967, 1965,2067,2070,1968
    1321, 2066,2168,2171,2069, 2067,2169,2172,2070
    1322, 2168,2270,2273,2171, 2169,2271,2274,2172
    1323, 2270,2372,2375,2273, 2271,2373,2376,2274
    1324, 2372,2474,2477,2375, 2373,2475,2478,2376
    1325, 2474,2576,2579,2477, 2475,2577,2580,2478
    1326, 2576,2678,2681,2579, 2577,2679,2682,2580
    1327, 2678,2780,2783,2681, 2679,2781,2784,2682
    1328, 2780,2882,2885,2783, 2781,2883,2886,2784
    1329, 2882,2984,2987,2885, 2883,2985,2988,2886
    1330, 2984,3086,3089,2987, 2985,3087,3090,2988
    1331, 3086,3188,3191,3089, 3087,3189,3192,3090
    1332, 32,134,137,35, 33,135,138,36
    1333, 134,236,239,137, 135,237,240,138
    1334, 236,338,341,239, 237,339,342,240
    1335, 338,440,443,341, 339,441,444,342
    1336, 440,542,545,443, 441,543,546,444
    1337, 542,644,647,545, 543,645,648,546
    1338, 644,746,749,647, 645,747,750,648
    1339, 746,848,851,749, 747,849,852,750
    1340, 848,950,953,851, 849,951,954,852
    1341, 950,1052,1055,953, 951,1053,1056,954
    1342, 1052,1154,1157,1055, 1053,1155,1158,1056
    1343, 1154,1256,1259,1157, 1155,1257,1260,1158
    1344, 1256,1343,1346,1259, 1257,1344,1347,1260
    1345, 1343,1424,1427,1346, 1344,1425,1428,1347
    1346, 1424,1499,1502,1427, 1425,1500,1503,1428
    1347, 1499,1574,1577,1502, 1500,1575,1578,1503
    1348, 1574,1649,1652,1577, 1575,1650,1653,1578
    1349, 1649,1724,1727,1652, 1650,1725,1728,1653
    1350, 1724,1799,1802,1727, 1725,1800,1803,1728
    1351, 1799,1880,1883,1802, 1800,1881,1884,1803
    1352, 1880,1967,1970,1883, 1881,1968,1971,1884
    1353, 1967,2069,2072,1970, 1968,2070,2073,1971
    1354, 2069,2171,2174,2072, 2070,2172,2175,2073
    1355, 2171,2273,2276,2174, 2172,2274,2277,2175
    1356, 2273,2375,2378,2276, 2274,2376,2379,2277
    1357, 2375,2477,2480,2378, 2376,2478,2481,2379
    1358, 2477,2579,2582,2480, 2478,2580,2583,2481
    1359, 2579,2681,2684,2582, 2580,2682,2685,2583
    1360, 2681,2783,2786,2684, 2682,2784,2787,2685
    1361, 2783,2885,2888,2786, 2784,2886,2889,2787
    1362, 2885,2987,2990,2888, 2886,2988,2991,2889
    1363, 2987,3089,3092,2990, 2988,3090,3093,2991
    1364, 3089,3191,3194,3092, 3090,3192,3195,3093
    1365, 35,137,140,38, 36,138,141,39
    1366, 137,239,242,140, 138,240,243,141
    1367, 239,341,344,242, 240,342,345,243
    1368, 341,443,446,344, 342,444,447,345
    1369, 443,545,548,446, 444,546,549,447
    1370, 545,647,650,548, 546,648,651,549
    1371, 647,749,752,650, 648,750,753,651
    1372, 749,851,854,752, 750,852,855,753
    1373, 851,953,956,854, 852,954,957,855
    1374, 953,1055,1058,956, 954,1056,1059,957
    1375, 1055,1157,1160,1058, 1056,1158,1161,1059
    1376, 1157,1259,1262,1160, 1158,1260,1263,1161
    1377, 1259,1346,1349,1262, 1260,1347,1350,1263
    1378, 1802,1883,1886,1805, 1803,1884,1887,1806
    1379, 1883,1970,1973,1886, 1884,1971,1974,1887
    1380, 1970,2072,2075,1973, 1971,2073,2076,1974
    1381, 2072,2174,2177,2075, 2073,2175,2178,2076
    1382, 2174,2276,2279,2177, 2175,2277,2280,2178
    1383, 2276,2378,2381,2279, 2277,2379,2382,2280
    1384, 2378,2480,2483,2381, 2379,2481,2484,2382
    1385, 2480,2582,2585,2483, 2481,2583,2586,2484
    1386, 2582,2684,2687,2585, 2583,2685,2688,2586
    1387, 2684,2786,2789,2687, 2685,2787,2790,2688
    1388, 2786,2888,2891,2789, 2787,2889,2892,2790
    1389, 2888,2990,2993,2891, 2889,2991,2994,2892
    1390, 2990,3092,3095,2993, 2991,3093,3096,2994
    1391, 3092,3194,3197,3095, 3093,3195,3198,3096
    1392, 38,140,143,41, 39,141,144,42
    1393, 140,242,245,143, 141,243,246,144
    1394, 242,344,347,245, 243,345,348,246
    1395, 344,446,449,347, 345,447,450,348
    1396, 446,548,551,449, 447,549,552,450
    1397, 548,650,653,551, 549,651,654,552
    1398, 650,752,755,653, 651,753,756,654
    1399, 752,854,857,755, 753,855,858,756
    1400, 854,956,959,857, 855,957,960,858
    1401, 956,1058,1061,959, 957,1059,1062,960
    1402, 1058,1160,1163,1061, 1059,1161,1164,1062
    1403, 1160,1262,1265,1163, 1161,1263,1266,1164
    1404, 1886,1973,1976,1889, 1887,1974,1977,1890
    1405, 1973,2075,2078,1976, 1974,2076,2079,1977
    1406, 2075,2177,2180,2078, 2076,2178,2181,2079
    1407, 2177,2279,2282,2180, 2178,2280,2283,2181
    1408, 2279,2381,2384,2282, 2280,2382,2385,2283
    1409, 2381,2483,2486,2384, 2382,2484,2487,2385
    1410, 2483,2585,2588,2486, 2484,2586,2589,2487
    1411, 2585,2687,2690,2588, 2586,2688,2691,2589
    1412, 2687,2789,2792,2690, 2688,2790,2793,2691
    1413, 2789,2891,2894,2792, 2790,2892,2895,2793
    1414, 2891,2993,2996,2894, 2892,2994,2997,2895
    1415, 2993,3095,3098,2996, 2994,3096,3099,2997
    1416, 3095,3197,3200,3098, 3096,3198,3201,3099
    1417, 41,143,146,44, 42,144,147,45
    1418, 143,245,248,146, 144,246,249,147
    1419, 245,347,350,248, 246,348,351,249
    1420, 347,449,452,350, 348,450,453,351
    1421, 449,551,554,452, 450,552,555,453
    1422, 551,653,656,554, 552,654,657,555
    1423, 653,755,758,656, 654,756,759,657
    1424, 755,857,860,758, 756,858,861,759
    1425, 857,959,962,860, 858,960,963,861
    1426, 959,1061,1064,962, 960,1062,1065,963
    1427, 1061,1163,1166,1064, 1062,1164,1167,1065
    1428, 1976,2078,2081,1979, 1977,2079,2082,1980
    1429, 2078,2180,2183,2081, 2079,2181,2184,2082
    1430, 2180,2282,2285,2183, 2181,2283,2286,2184
    1431, 2282,2384,2387,2285, 2283,2385,2388,2286
    1432, 2384,2486,2489,2387, 2385,2487,2490,2388
    1433, 2486,2588,2591,2489, 2487,2589,2592,2490
    1434, 2588,2690,2693,2591, 2589,2691,2694,2592
    1435, 2690,2792,2795,2693, 2691,2793,2796,2694
    1436, 2792,2894,2897,2795, 2793,2895,2898,2796
    1437, 2894,2996,2999,2897, 2895,2997,3000,2898
    1438, 2996,3098,3101,2999, 2997,3099,3102,3000
    1439, 3098,3200,3203,3101, 3099,3201,3204,3102
    1440, 44,146,149,47, 45,147,150,48
    1441, 146,248,251,149, 147,249,252,150
    1442, 248,350,353,251, 249,351,354,252
    1443, 350,452,455,353, 351,453,456,354
    1444, 452,554,557,455, 453,555,558,456
    1445, 554,656,659,557, 555,657,660,558
    1446, 656,758,761,659, 657,759,762,660
    1447, 758,860,863,761, 759,861,864,762
    1448, 860,962,965,863, 861,963,966,864
    1449, 962,1064,1067,965, 963,1065,1068,966
    1450, 1064,1166,1169,1067, 1065,1167,1170,1068
    1451, 1979,2081,2084,1982, 1980,2082,2085,1983
    1452, 2081,2183,2186,2084, 2082,2184,2187,2085
    1453, 2183,2285,2288,2186, 2184,2286,2289,2187
    1454, 2285,2387,2390,2288, 2286,2388,2391,2289
    1455, 2387,2489,2492,2390, 2388,2490,2493,2391
    1456, 2489,2591,2594,2492, 2490,2592,2595,2493
    1457, 2591,2693,2696,2594, 2592,2694,2697,2595
    1458, 2693,2795,2798,2696, 2694,2796,2799,2697
    1459, 2795,2897,2900,2798, 2796,2898,2901,2799
    1460, 2897,2999,3002,2900, 2898,3000,3003,2901
    1461, 2999,3101,3104,3002, 3000,3102,3105,3003
    1462, 3101,3203,3206,3104, 3102,3204,3207,3105
    1463, 47,149,152,50, 48,150,153,51
    1464, 149,251,254,152, 150,252,255,153
    1465, 251,353,356,254, 252,354,357,255
    1466, 353,455,458,356, 354,456,459,357
    1467, 455,557,560,458, 456,558,561,459
    1468, 557,659,662,560, 558,660,663,561
    1469, 659,761,764,662, 660,762,765,663
    1470, 761,863,866,764, 762,864,867,765
    1471, 863,965,968,866, 864,966,969,867
    1472, 965,1067,1070,968, 966,1068,1071,969
    1473, 1067,1169,1172,1070, 1068,1170,1173,1071
    1474, 1982,2084,2087,1985, 1983,2085,2088,1986
    1475, 2084,2186,2189,2087, 2085,2187,2190,2088
    1476, 2186,2288,2291,2189, 2187,2289,2292,2190
    1477, 2288,2390,2393,2291, 2289,2391,2394,2292
    1478, 2390,2492,2495,2393, 2391,2493,2496,2394
    1479, 2492,2594,2597,2495, 2493,2595,2598,2496
    1480, 2594,2696,2699,2597, 2595,2697,2700,2598
    1481, 2696,2798,2801,2699, 2697,2799,2802,2700
    1482, 2798,2900,2903,2801, 2799,2901,2904,2802
    1483, 2900,3002,3005,2903, 2901,3003,3006,2904
    1484, 3002,3104,3107,3005, 3003,3105,3108,3006
    1485, 3104,3206,3209,3107, 3105,3207,3210,3108
    1486, 50,152,155,53, 51,153,156,54
    1487, 152,254,257,155, 153,255,258,156
    1488, 254,356,359,257, 255,357,360,258
    1489, 356,458,461,359, 357,459,462,360
    1490, 458,560,563,461, 459,561,564,462
    1491, 560,662,665,563, 561,663,666,564
    1492, 662,764,767,665, 663,765,768,666
    1493, 764,866,869,767, 765,867,870,768
    1494, 866,968,971,869, 867,969,972,870
    1495, 968,1070,1073,971, 969,1071,1074,972
    1496, 1070,1172,1175,1073, 1071,1173,1176,1074
    1497, 1985,2087,2090,1988, 1986,2088,2091,1989
    1498, 2087,2189,2192,2090, 2088,2190,2193,2091
    1499, 2189,2291,2294,2192, 2190,2292,2295,2193
    1500, 2291,2393,2396,2294, 2292,2394,2397,2295
    1501, 2393,2495,2498,2396, 2394,2496,2499,2397
    1502, 2495,2597,2600,2498, 2496,2598,2601,2499
    1503, 2597,2699,2702,2600, 2598,2700,2703,2601
    1504, 2699,2801,2804,2702, 2700,2802,2805,2703
    1505, 2801,2903,2906,2804, 2802,2904,2907,2805
    1506, 2903,3005,3008,2906, 2904,3006,3009,2907
    1507, 3005,3107,3110,3008, 3006,3108,3111,3009
    1508, 3107,3209,3212,3110, 3108,3210,3213,3111
    1509, 53,155,158,56, 54,156,159,57
    1510, 155,257,260,158, 156,258,261,159
    1511, 257,359,362,260, 258,360,363,261
    1512, 359,461,464,362, 360,462,465,363
    1513, 461,563,566,464, 462,564,567,465
    1514, 563,665,668,566, 564,666,669,567
    1515, 665,767,770,668, 666,768,771,669
    1516, 767,869,872,770, 768,870,873,771
    1517, 869,971,974,872, 870,972,975,873
    1518, 971,1073,1076,974, 972,1074,1077,975
    1519, 1073,1175,1178,1076, 1074,1176,1179,1077
    1520, 1988,2090,2093,1991, 1989,2091,2094,1992
    1521, 2090,2192,2195,2093, 2091,2193,2196,2094
    1522, 2192,2294,2297,2195, 2193,2295,2298,2196
    1523, 2294,2396,2399,2297, 2295,2397,2400,2298
    1524, 2396,2498,2501,2399, 2397,2499,2502,2400
    1525, 2498,2600,2603,2501, 2499,2601,2604,2502
    1526, 2600,2702,2705,2603, 2601,2703,2706,2604
    1527, 2702,2804,2807,2705, 2703,2805,2808,2706
    1528, 2804,2906,2909,2807, 2805,2907,2910,2808
    1529, 2906,3008,3011,2909, 2907,3009,3012,2910
    1530, 3008,3110,3113,3011, 3009,3111,3114,3012
    1531, 3110,3212,3215,3113, 3111,3213,3216,3114
    1532, 56,158,161,59, 57,159,162,60
    1533, 158,260,263,161, 159,261,264,162
    1534, 260,362,365,263, 261,363,366,264
    1535, 362,464,467,365, 363,465,468,366
    1536, 464,566,569,467, 465,567,570,468
    1537, 566,668,671,569, 567,669,672,570
    1538, 668,770,773,671, 669,771,774,672
    1539, 770,872,875,773, 771,873,876,774
    1540, 872,974,977,875, 873,975,978,876
    1541, 974,1076,1079,977, 975,1077,1080,978
    1542, 1076,1178,1181,1079, 1077,1179,1182,1080
    1543, 1991,2093,2096,1994, 1992,2094,2097,1995
    1544, 2093,2195,2198,2096, 2094,2196,2199,2097
    1545, 2195,2297,2300,2198, 2196,2298,2301,2199
    1546, 2297,2399,2402,2300, 2298,2400,2403,2301
    1547, 2399,2501,2504,2402, 2400,2502,2505,2403
    1548, 2501,2603,2606,2504, 2502,2604,2607,2505
    1549, 2603,2705,2708,2606, 2604,2706,2709,2607
    1550, 2705,2807,2810,2708, 2706,2808,2811,2709
    1551, 2807,2909,2912,2810, 2808,2910,2913,2811
    1552, 2909,3011,3014,2912, 2910,3012,3015,2913
    1553, 3011,3113,3116,3014, 3012,3114,3117,3015
    1554, 3113,3215,3218,3116, 3114,3216,3219,3117
    1555, 59,161,164,62, 60,162,165,63
    1556, 161,263,266,164, 162,264,267,165
    1557, 263,365,368,266, 264,366,369,267
    1558, 365,467,470,368, 366,468,471,369
    1559, 467,569,572,470, 468,570,573,471
    1560, 569,671,674,572, 570,672,675,573
    1561, 671,773,776,674, 672,774,777,675
    1562, 773,875,878,776, 774,876,879,777
    1563, 875,977,980,878, 876,978,981,879
    1564, 977,1079,1082,980, 978,1080,1083,981
    1565, 1079,1181,1184,1082, 1080,1182,1185,1083
    1566, 1181,1268,1271,1184, 1182,1269,1272,1185
    1567, 1892,1994,1997,1895, 1893,1995,1998,1896
    1568, 1994,2096,2099,1997, 1995,2097,2100,1998
    1569, 2096,2198,2201,2099, 2097,2199,2202,2100
    1570, 2198,2300,2303,2201, 2199,2301,2304,2202
    1571, 2300,2402,2405,2303, 2301,2403,2406,2304
    1572, 2402,2504,2507,2405, 2403,2505,2508,2406
    1573, 2504,2606,2609,2507, 2505,2607,2610,2508
    1574, 2606,2708,2711,2609, 2607,2709,2712,2610
    1575, 2708,2810,2813,2711, 2709,2811,2814,2712
    1576, 2810,2912,2915,2813, 2811,2913,2916,2814
    1577, 2912,3014,3017,2915, 2913,3015,3018,2916
    1578, 3014,3116,3119,3017, 3015,3117,3120,3018
    1579, 3116,3218,3221,3119, 3117,3219,3222,3120
    1580, 62,164,167,65, 63,165,168,66
    1581, 164,266,269,167, 165,267,270,168
    1582, 266,368,371,269, 267,369,372,270
    1583, 368,470,473,371, 369,471,474,372
    1584, 470,572,575,473, 471,573,576,474
    1585, 572,674,677,575, 573,675,678,576
    1586, 674,776,779,677, 675,777,780,678
    1587, 776,878,881,779, 777,879,882,780
    1588, 878,980,983,881, 879,981,984,882
    1589, 980,1082,1085,983, 981,1083,1086,984
    1590, 1082,1184,1187,1085, 1083,1185,1188,1086
    1591, 1184,1271,1274,1187, 1185,1272,1275,1188
    1592, 1271,1352,1355,1274, 1272,1353,1356,1275
    1593, 1808,1895,1898,1811, 1809,1896,1899,1812
    1594, 1895,1997,2000,1898, 1896,1998,2001,1899
    1595, 1997,2099,2102,2000, 1998,2100,2103,2001
    1596, 2099,2201,2204,2102, 2100,2202,2205,2103
    1597, 2201,2303,2306,2204, 2202,2304,2307,2205
    1598, 2303,2405,2408,2306, 2304,2406,2409,2307
    1599, 2405,2507,2510,2408, 2406,2508,2511,2409
    1600, 2507,2609,2612,2510, 2508,2610,2613,2511
    1601, 2609,2711,2714,2612, 2610,2712,2715,2613
    1602, 2711,2813,2816,2714, 2712,2814,2817,2715
    1603, 2813,2915,2918,2816, 2814,2916,2919,2817
    1604, 2915,3017,3020,2918, 2916,3018,3021,2919
    1605, 3017,3119,3122,3020, 3018,3120,3123,3021
    1606, 3119,3221,3224,3122, 3120,3222,3225,3123
    1607, 65,167,170,68, 66,168,171,69
    1608, 167,269,272,170, 168,270,273,171
    1609, 269,371,374,272, 270,372,375,273
    1610, 371,473,476,374, 372,474,477,375
    1611, 473,575,578,476, 474,576,579,477
    1612, 575,677,680,578, 576,678,681,579
    1613, 677,779,782,680, 678,780,783,681
    1614, 779,881,884,782, 780,882,885,783
    1615, 881,983,986,884, 882,984,987,885
    1616, 983,1085,1088,986, 984,1086,1089,987
    1617, 1085,1187,1190,1088, 1086,1188,1191,1089
    1618, 1187,1274,1277,1190, 1188,1275,1278,1191
    1619, 1274,1355,1358,1277, 1275,1356,1359,1278
    1620, 1355,1430,1433,1358, 1356,1431,1434,1359
    1621, 1430,1505,1508,1433, 1431,1506,1509,1434
    1622, 1505,1580,1583,1508, 1506,1581,1584,1509
    1623, 1580,1655,1658,1583, 1581,1656,1659,1584
    1624, 1655,1730,1733,1658, 1656,1731,1734,1659
    1625, 1730,1811,1814,1733, 1731,1812,1815,1734
    1626, 1811,1898,1901,1814, 1812,1899,1902,1815
    1627, 1898,2000,2003,1901, 1899,2001,2004,1902
    1628, 2000,2102,2105,2003, 2001,2103,2106,2004
    1629, 2102,2204,2207,2105, 2103,2205,2208,2106
    1630, 2204,2306,2309,2207, 2205,2307,2310,2208
    1631, 2306,2408,2411,2309, 2307,2409,2412,2310
    1632, 2408,2510,2513,2411, 2409,2511,2514,2412
    1633, 2510,2612,2615,2513, 2511,2613,2616,2514
    1634, 2612,2714,2717,2615, 2613,2715,2718,2616
    1635, 2714,2816,2819,2717, 2715,2817,2820,2718
    1636, 2816,2918,2921,2819, 2817,2919,2922,2820
    1637, 2918,3020,3023,2921, 2919,3021,3024,2922
    1638, 3020,3122,3125,3023, 3021,3123,3126,3024
    1639, 3122,3224,3227,3125, 3123,3225,3228,3126
    1640, 68,170,173,71, 69,171,174,72
    1641, 170,272,275,173, 171,273,276,174
    1642, 272,374,377,275, 273,375,378,276
    1643, 374,476,479,377, 375,477,480,378
    1644, 476,578,581,479, 477,579,582,480
    1645, 578,680,683,581, 579,681,684,582
    1646, 680,782,785,683, 681,783,786,684
    1647, 782,884,887,785, 783,885,888,786
    1648, 884,986,989,887, 885,987,990,888
    1649, 986,1088,1091,989, 987,1089,1092,990
    1650, 1088,1190,1193,1091, 1089,1191,1194,1092
    1651, 1190,1277,1280,1193, 1191,1278,1281,1194
    1652, 1277,1358,1361,1280, 1278,1359,1362,1281
    1653, 1358,1433,1436,1361, 1359,1434,1437,1362
    1654, 1433,1508,1511,1436, 1434,1509,1512,1437
    1655, 1508,1583,1586,1511, 1509,1584,1587,1512
    1656, 1583,1658,1661,1586, 1584,1659,1662,1587
    1657, 1658,1733,1736,1661, 1659,1734,1737,1662
    1658, 1733,1814,1817,1736, 1734,1815,1818,1737
    1659, 1814,1901,1904,1817, 1815,1902,1905,1818
    1660, 1901,2003,2006,1904, 1902,2004,2007,1905
    1661, 2003,2105,2108,2006, 2004,2106,2109,2007
    1662, 2105,2207,2210,2108, 2106,2208,2211,2109
    1663, 2207,2309,2312,2210, 2208,2310,2313,2211
    1664, 2309,2411,2414,2312, 2310,2412,2415,2313
    1665, 2411,2513,2516,2414, 2412,2514,2517,2415
    1666, 2513,2615,2618,2516, 2514,2616,2619,2517
    1667, 2615,2717,2720,2618, 2616,2718,2721,2619
    1668, 2717,2819,2822,2720, 2718,2820,2823,2721
    1669, 2819,2921,2924,2822, 2820,2922,2925,2823
    1670, 2921,3023,3026,2924, 2922,3024,3027,2925
    1671, 3023,3125,3128,3026, 3024,3126,3129,3027
    1672, 3125,3227,3230,3128, 3126,3228,3231,3129
    1673, 71,173,176,74, 72,174,177,75
    1674, 173,275,278,176, 174,276,279,177
    1675, 275,377,380,278, 276,378,381,279
    1676, 377,479,482,380, 378,480,483,381
    1677, 479,581,584,482, 480,582,585,483
    1678, 581,683,686,584, 582,684,687,585
    1679, 683,785,788,686, 684,786,789,687
    1680, 785,887,890,788, 786,888,891,789
    1681, 887,989,992,890, 888,990,993,891
    1682, 989,1091,1094,992, 990,1092,1095,993
    1683, 1091,1193,1196,1094, 1092,1194,1197,1095
    1684, 1193,1280,1283,1196, 1194,1281,1284,1197
    1685, 1280,1361,1364,1283, 1281,1362,1365,1284
    1686, 1361,1436,1439,1364, 1362,1437,1440,1365
    1687, 1436,1511,1514,1439, 1437,1512,1515,1440
    1688, 1511,1586,1589,1514, 1512,1587,1590,1515
    1689, 1586,1661,1664,1589, 1587,1662,1665,1590
    1690, 1661,1736,1739,1664, 1662,1737,1740,1665
    1691, 1736,1817,1820,1739, 1737,1818,1821,1740
    1692, 1817,1904,1907,1820, 1818,1905,1908,1821
    1693, 1904,2006,2009,1907, 1905,2007,2010,1908
    1694, 2006,2108,2111,2009, 2007,2109,2112,2010
    1695, 2108,2210,2213,2111, 2109,2211,2214,2112
    1696, 2210,2312,2315,2213, 2211,2313,2316,2214
    1697, 2312,2414,2417,2315, 2313,2415,2418,2316
    1698, 2414,2516,2519,2417, 2415,2517,2520,2418
    1699, 2516,2618,2621,2519, 2517,2619,2622,2520
    1700, 2618,2720,2723,2621, 2619,2721,2724,2622
    1701, 2720,2822,2825,2723, 2721,2823,2826,2724
    1702, 2822,2924,2927,2825, 2823,2925,2928,2826
    1703, 2924,3026,3029,2927, 2925,3027,3030,2928
    1704, 3026,3128,3131,3029, 3027,3129,3132,3030
    1705, 3128,3230,3233,3131, 3129,3231,3234,3132
    1706, 74,176,179,77, 75,177,180,78
    1707, 176,278,281,179, 177,279,282,180
    1708, 278,380,383,281, 279,381,384,282
    1709, 380,482,485,383, 381,483,486,384
    1710, 482,584,587,485, 483,585,588,486
    1711, 584,686,689,587, 585,687,690,588
    1712, 686,788,791,689, 687,789,792,690
    1713, 788,890,893,791, 789,891,894,792
    1714, 890,992,995,893, 891,993,996,894
    1715, 992,1094,1097,995, 993,1095,1098,996
    1716, 1094,1196,1199,1097, 1095,1197,1200,1098
    1717, 1196,1283,1286,1199, 1197,1284,1287,1200
    1718, 1283,1364,1367,1286, 1284,1365,1368,1287
    1719, 1364,1439,1442,1367, 1365,1440,1443,1368
    1720, 1439,1514,1517,1442, 1440,1515,1518,1443
    1721, 1514,1589,1592,1517, 1515,1590,1593,1518
    1722, 1589,1664,1667,1592, 1590,1665,1668,1593
    1723, 1664,1739,1742,1667, 1665,1740,1743,1668
    1724, 1739,1820,1823,1742, 1740,1821,1824,1743
    1725, 1820,1907,1910,1823, 1821,1908,1911,1824
    1726, 1907,2009,2012,1910, 1908,2010,2013,1911
    1727, 2009,2111,2114,2012, 2010,2112,2115,2013
    1728, 2111,2213,2216,2114, 2112,2214,2217,2115
    1729, 2213,2315,2318,2216, 2214,2316,2319,2217
    1730, 2315,2417,2420,2318, 2316,2418,2421,2319
    1731, 2417,2519,2522,2420, 2418,2520,2523,2421
    1732, 2519,2621,2624,2522, 2520,2622,2625,2523
    1733, 2621,2723,2726,2624, 2622,2724,2727,2625
    1734, 2723,2825,2828,2726, 2724,2826,2829,2727
    1735, 2825,2927,2930,2828, 2826,2928,2931,2829
    1736, 2927,3029,3032,2930, 2928,3030,3033,2931
    1737, 3029,3131,3134,3032, 3030,3132,3135,3033
    1738, 3131,3233,3236,3134, 3132,3234,3237,3135
    1739, 77,179,182,80, 78,180,183,81
    1740, 179,281,284,182, 180,282,285,183
    1741, 281,383,386,284, 282,384,387,285
    1742, 383,485,488,386, 384,486,489,387
    1743, 485,587,590,488, 486,588,591,489
    1744, 587,689,692,590, 588,690,693,591
    1745, 689,791,794,692, 690,792,795,693
    1746, 791,893,896,794, 792,894,897,795
    1747, 893,995,998,896, 894,996,999,897
    1748, 995,1097,1100,998, 996,1098,1101,999
    1749, 1097,1199,1202,1100, 1098,1200,1203,1101
    1750, 1199,1286,1289,1202, 1200,1287,1290,1203
    1751, 1286,1367,1370,1289, 1287,1368,1371,1290
    1752, 1367,1442,1445,1370, 1368,1443,1446,1371
    1753, 1442,1517,1520,1445, 1443,1518,1521,1446
    1754, 1517,1592,1595,1520, 1518,1593,1596,1521
    1755, 1592,1667,1670,1595, 1593,1668,1671,1596
    1756, 1667,1742,1745,1670, 1668,1743,1746,1671
    1757, 1742,1823,1826,1745, 1743,1824,1827,1746
    1758, 1823,1910,1913,1826, 1824,1911,1914,1827
    1759, 1910,2012,2015,1913, 1911,2013,2016,1914
    1760, 2012,2114,2117,2015, 2013,2115,2118,2016
    1761, 2114,2216,2219,2117, 2115,2217,2220,2118
    1762, 2216,2318,2321,2219, 2217,2319,2322,2220
    1763, 2318,2420,2423,2321, 2319,2421,2424,2322
    1764, 2420,2522,2525,2423, 2421,2523,2526,2424
    1765, 2522,2624,2627,2525, 2523,2625,2628,2526
    1766, 2624,2726,2729,2627, 2625,2727,2730,2628
    1767, 2726,2828,2831,2729, 2727,2829,2832,2730
    1768, 2828,2930,2933,2831, 2829,2931,2934,2832
    1769, 2930,3032,3035,2933, 2931,3033,3036,2934
    1770, 3032,3134,3137,3035, 3033,3135,3138,3036
    1771, 3134,3236,3239,3137, 3135,3237,3240,3138
    1772, 80,182,185,83, 81,183,186,84
    1773, 182,284,287,185, 183,285,288,186
    1774, 284,386,389,287, 285,387,390,288
    1775, 386,488,491,389, 387,489,492,390
    1776, 488,590,593,491, 489,591,594,492
    1777, 590,692,695,593, 591,693,696,594
    1778, 692,794,797,695, 693,795,798,696
    1779, 794,896,899,797, 795,897,900,798
    1780, 896,998,1001,899, 897,999,1002,900
    1781, 998,1100,1103,1001, 999,1101,1104,1002
    1782, 1100,1202,1205,1103, 1101,1203,1206,1104
    1783, 1202,1289,1292,1205, 1203,1290,1293,1206
    1784, 1289,1370,1373,1292, 1290,1371,1374,1293
    1785, 1370,1445,1448,1373, 1371,1446,1449,1374
    1786, 1445,1520,1523,1448, 1446,1521,1524,1449
    1787, 1520,1595,1598,1523, 1521,1596,1599,1524
    1788, 1595,1670,1673,1598, 1596,1671,1674,1599
    1789, 1670,1745,1748,1673, 1671,1746,1749,1674
    1790, 1745,1826,1829,1748, 1746,1827,1830,1749
    1791, 1826,1913,1916,1829, 1827,1914,1917,1830
    1792, 1913,2015,2018,1916, 1914,2016,2019,1917
    1793, 2015,2117,2120,2018, 2016,2118,2121,2019
    1794, 2117,2219,2222,2120, 2118,2220,2223,2121
    1795, 2219,2321,2324,2222, 2220,2322,2325,2223
    1796, 2321,2423,2426,2324, 2322,2424,2427,2325
    1797, 2423,2525,2528,2426, 2424,2526,2529,2427
    1798, 2525,2627,2630,2528, 2526,2628,2631,2529
    1799, 2627,2729,2732,2630, 2628,2730,2733,2631
    1800, 2729,2831,2834,2732, 2730,2832,2835,2733
    1801, 2831,2933,2936,2834, 2832,2934,2937,2835
    1802, 2933,3035,3038,2936, 2934,3036,3039,2937
    1803, 3035,3137,3140,3038, 3036,3138,3141,3039
    1804, 3137,3239,3242,3140, 3138,3240,3243,3141
    1805, 83,185,188,86, 84,186,189,87
    1806, 185,287,290,188, 186,288,291,189
    1807, 287,389,392,290, 288,390,393,291
    1808, 389,491,494,392, 390,492,495,393
    1809, 491,593,596,494, 492,594,597,495
    1810, 593,695,698,596, 594,696,699,597
    1811, 695,797,800,698, 696,798,801,699
    1812, 797,899,902,800, 798,900,903,801
    1813, 899,1001,1004,902, 900,1002,1005,903
    1814, 1001,1103,1106,1004, 1002,1104,1107,1005
    1815, 1103,1205,1208,1106, 1104,1206,1209,1107
    1816, 1205,1292,1295,1208, 1206,1293,1296,1209
    1817, 1292,1373,1376,1295, 1293,1374,1377,1296
    1818, 1373,1448,1451,1376, 1374,1449,1452,1377
    1819, 1448,1523,1526,1451, 1449,1524,1527,1452
    1820, 1523,1598,1601,1526, 1524,1599,1602,1527
    1821, 1598,1673,1676,1601, 1599,1674,1677,1602
    1822, 1673,1748,1751,1676, 1674,1749,1752,1677
    1823, 1748,1829,1832,1751, 1749,1830,1833,1752
    1824, 1829,1916,1919,1832, 1830,1917,1920,1833
    1825, 1916,2018,2021,1919, 1917,2019,2022,1920
    1826, 2018,2120,2123,2021, 2019,2121,2124,2022
    1827, 2120,2222,2225,2123, 2121,2223,2226,2124
    1828, 2222,2324,2327,2225, 2223,2325,2328,2226
    1829, 2324,2426,2429,2327, 2325,2427,2430,2328
    1830, 2426,2528,2531,2429, 2427,2529,2532,2430
    1831, 2528,2630,2633,2531, 2529,2631,2634,2532
    1832, 2630,2732,2735,2633, 2631,2733,2736,2634
    1833, 2732,2834,2837,2735, 2733,2835,2838,2736
    1834, 2834,2936,2939,2837, 2835,2937,2940,2838
    1835, 2936,3038,3041,2939, 2937,3039,3042,2940
    1836, 3038,3140,3143,3041, 3039,3141,3144,3042
    1837, 3140,3242,3245,3143, 3141,3243,3246,3144
    1838, 86,188,191,89, 87,189,192,90
    1839, 188,290,293,191, 189,291,294,192
    1840, 290,392,395,293, 291,393,396,294
    1841, 392,494,497,395, 393,495,498,396
    1842, 494,596,599,497, 495,597,600,498
    1843, 596,698,701,599, 597,699,702,600
    1844, 698,800,803,701, 699,801,804,702
    1845, 800,902,905,803, 801,903,906,804
    1846, 902,1004,1007,905, 903,1005,1008,906
    1847, 1004,1106,1109,1007, 1005,1107,1110,1008
    1848, 1106,1208,1211,1109, 1107,1209,1212,1110
    1849, 1208,1295,1298,1211, 1209,1296,1299,1212
    1850, 1295,1376,1379,1298, 1296,1377,1380,1299
    1851, 1376,1451,1454,1379, 1377,1452,1455,1380
    1852, 1451,1526,1529,1454, 1452,1527,1530,1455
    1853, 1526,1601,1604,1529, 1527,1602,1605,1530
    1854, 1601,1676,1679,1604, 1602,1677,1680,1605
    1855, 1676,1751,1754,1679, 1677,1752,1755,1680
    1856, 1751,1832,1835,1754, 1752,1833,1836,1755
    1857, 1832,1919,1922,1835, 1833,1920,1923,1836
    1858, 1919,2021,2024,1922, 1920,2022,2025,1923
    1859, 2021,2123,2126,2024, 2022,2124,2127,2025
    1860, 2123,2225,2228,2126, 2124,2226,2229,2127
    1861, 2225,2327,2330,2228, 2226,2328,2331,2229
    1862, 2327,2429,2432,2330, 2328,2430,2433,2331
    1863, 2429,2531,2534,2432, 2430,2532,2535,2433
    1864, 2531,2633,2636,2534, 2532,2634,2637,2535
    1865, 2633,2735,2738,2636, 2634,2736,2739,2637
    1866, 2735,2837,2840,2738, 2736,2838,2841,2739
    1867, 2837,2939,2942,2840, 2838,2940,2943,2841
    1868, 2939,3041,3044,2942, 2940,3042,3045,2943
    1869, 3041,3143,3146,3044, 3042,3144,3147,3045
    1870, 3143,3245,3248,3146, 3144,3246,3249,3147
    1871, 89,191,194,92, 90,192,195,93
    1872, 191,293,296,194, 192,294,297,195
    1873, 293,395,398,296, 294,396,399,297
    1874, 395,497,500,398, 396,498,501,399
    1875, 497,599,602,500, 498,600,603,501
    1876, 599,701,704,602, 600,702,705,603
    1877, 701,803,806,704, 702,804,807,705
    1878, 803,905,908,806, 804,906,909,807
    1879, 905,1007,1010,908, 906,1008,1011,909
    1880, 1007,1109,1112,1010, 1008,1110,1113,1011
    1881, 1109,1211,1214,1112, 1110,1212,1215,1113
    1882, 1211,1298,1301,1214, 1212,1299,1302,1215
    1883, 1298,1379,1382,1301, 1299,1380,1383,1302
    1884, 1379,1454,1457,1382, 1380,1455,1458,1383
    1885, 1454,1529,1532,1457, 1455,1530,1533,1458
    1886, 1529,1604,1607,1532, 1530,1605,1608,1533
    1887, 1604,1679,1682,1607, 1605,1680,1683,1608
    1888, 1679,1754,1757,1682, 1680,1755,1758,1683
    1889, 1754,1835,1838,1757, 1755,1836,1839,1758
    1890, 1835,1922,1925,1838, 1836,1923,1926,1839
    1891, 1922,2024,2027,1925, 1923,2025,2028,1926
    1892, 2024,2126,2129,2027, 2025,2127,2130,2028
    1893, 2126,2228,2231,2129, 2127,2229,2232,2130
    1894, 2228,2330,2333,2231, 2229,2331,2334,2232
    1895, 2330,2432,2435,2333, 2331,2433,2436,2334
    1896, 2432,2534,2537,2435, 2433,2535,2538,2436
    1897, 2534,2636,2639,2537, 2535,2637,2640,2538
    1898, 2636,2738,2741,2639, 2637,2739,2742,2640
    1899, 2738,2840,2843,2741, 2739,2841,2844,2742
    1900, 2840,2942,2945,2843, 2841,2943,2946,2844
    1901, 2942,3044,3047,2945, 2943,3045,3048,2946
    1902, 3044,3146,3149,3047, 3045,3147,3150,3048
    1903, 3146,3248,3251,3149, 3147,3249,3252,3150
    1904, 92,194,197,95, 93,195,198,96
    1905, 194,296,299,197, 195,297,300,198
    1906, 296,398,401,299, 297,399,402,300
    1907, 398,500,503,401, 399,501,504,402
    1908, 500,602,605,503, 501,603,606,504
    1909, 602,704,707,605, 603,705,708,606
    1910, 704,806,809,707, 705,807,810,708
    1911, 806,908,911,809, 807,909,912,810
    1912, 908,1010,1013,911, 909,1011,1014,912
    1913, 1010,1112,1115,1013, 1011,1113,1116,1014
    1914, 1112,1214,1217,1115, 1113,1215,1218,1116
    1915, 1214,1301,1304,1217, 1215,1302,1305,1218
    1916, 1301,1382,1385,1304, 1302,1383,1386,1305
    1917, 1382,1457,1460,1385, 1383,1458,1461,1386
    1918, 1457,1532,1535,1460, 1458,1533,1536,1461
    1919, 1532,1607,1610,1535, 1533,1608,1611,1536
    1920, 1607,1682,1685,1610, 1608,1683,1686,1611
    1921, 1682,1757,1760,1685, 1683,1758,1761,1686
    1922, 1757,1838,1841,1760, 1758,1839,1842,1761
    1923, 1838,1925,1928,1841, 1839,1926,1929,1842
    1924, 1925,2027,2030,1928, 1926,2028,2031,1929
    1925, 2027,2129,2132,2030, 2028,2130,2133,2031
    1926, 2129,2231,2234,2132, 2130,2232,2235,2133
    1927, 2231,2333,2336,2234, 2232,2334,2337,2235
    1928, 2333,2435,2438,2336, 2334,2436,2439,2337
    1929, 2435,2537,2540,2438, 2436,2538,2541,2439
    1930, 2537,2639,2642,2540, 2538,2640,2643,2541
    1931, 2639,2741,2744,2642, 2640,2742,2745,2643
    1932, 2741,2843,2846,2744, 2742,2844,2847,2745
    1933, 2843,2945,2948,2846, 2844,2946,2949,2847
    1934, 2945,3047,3050,2948, 2946,3048,3051,2949
    1935, 3047,3149,3152,3050, 3048,3150,3153,3051
    1936, 3149,3251,3254,3152, 3150,3252,3255,3153
    1937, 95,197,200,98, 96,198,201,99
    1938, 197,299,302,200, 198,300,303,201
    1939, 299,401,404,302, 300,402,405,303
    1940, 401,503,506,404, 402,504,507,405
    1941, 503,605,608,506, 504,606,609,507
    1942, 605,707,710,608, 606,708,711,609
    1943, 707,809,812,710, 708,810,813,711
    1944, 809,911,914,812, 810,912,915,813
    1945, 911,1013,1016,914, 912,1014,1017,915
    1946, 1013,1115,1118,1016, 1014,1116,1119,1017
    1947, 1115,1217,1220,1118, 1116,1218,1221,1119
    1948, 1217,1304,1307,1220, 1218,1305,1308,1221
    1949, 1304,1385,1388,1307, 1305,1386,1389,1308
    1950, 1385,1460,1463,1388, 1386,1461,1464,1389
    1951, 1460,1535,1538,1463, 1461,1536,1539,1464
    1952, 1535,1610,1613,1538, 1536,1611,1614,1539
    1953, 1610,1685,1688,1613, 1611,1686,1689,1614
    1954, 1685,1760,1763,1688, 1686,1761,1764,1689
    1955, 1760,1841,1844,1763, 1761,1842,1845,1764
    1956, 1841,1928,1931,1844, 1842,1929,1932,1845
    1957, 1928,2030,2033,1931, 1929,2031,2034,1932
    1958, 2030,2132,2135,2033, 2031,2133,2136,2034
    1959, 2132,2234,2237,2135, 2133,2235,2238,2136
    1960, 2234,2336,2339,2237, 2235,2337,2340,2238
    1961, 2336,2438,2441,2339, 2337,2439,2442,2340
    1962, 2438,2540,2543,2441, 2439,2541,2544,2442
    1963, 2540,2642,2645,2543, 2541,2643,2646,2544
    1964, 2642,2744,2747,2645, 2643,2745,2748,2646
    1965, 2744,2846,2849,2747, 2745,2847,2850,2748
    1966, 2846,2948,2951,2849, 2847,2949,2952,2850
    1967, 2948,3050,3053,2951, 2949,3051,3054,2952
    1968, 3050,3152,3155,3053, 3051,3153,3156,3054
    1969, 3152,3254,3257,3155, 3153,3255,3258,3156
    1970, 98,200,203,101, 99,201,204,102
    1971, 200,302,305,203, 201,303,306,204
    1972, 302,404,407,305, 303,405,408,306
    1973, 404,506,509,407, 405,507,510,408
    1974, 506,608,611,509, 507,609,612,510
    1975, 608,710,713,611, 609,711,714,612
    1976, 710,812,815,713, 711,813,816,714
    1977, 812,914,917,815, 813,915,918,816
    1978, 914,1016,1019,917, 915,1017,1020,918
    1979, 1016,1118,1121,1019, 1017,1119,1122,1020
    1980, 1118,1220,1223,1121, 1119,1221,1224,1122
    1981, 1220,1307,1310,1223, 1221,1308,1311,1224
    1982, 1307,1388,1391,1310, 1308,1389,1392,1311
    1983, 1388,1463,1466,1391, 1389,1464,1467,1392
    1984, 1463,1538,1541,1466, 1464,1539,1542,1467
    1985, 1538,1613,1616,1541, 1539,1614,1617,1542
    1986, 1613,1688,1691,1616, 1614,1689,1692,1617
    1987, 1688,1763,1766,1691, 1689,1764,1767,1692
    1988, 1763,1844,1847,1766, 1764,1845,1848,1767
    1989, 1844,1931,1934,1847, 1845,1932,1935,1848
    1990, 1931,2033,2036,1934, 1932,2034,2037,1935
    1991, 2033,2135,2138,2036, 2034,2136,2139,2037
    1992, 2135,2237,2240,2138, 2136,2238,2241,2139
    1993, 2237,2339,2342,2240, 2238,2340,2343,2241
    1994, 2339,2441,2444,2342, 2340,2442,2445,2343
    1995, 2441,2543,2546,2444, 2442,2544,2547,2445
    1996, 2543,2645,2648,2546, 2544,2646,2649,2547
    1997, 2645,2747,2750,2648, 2646,2748,2751,2649
    1998, 2747,2849,2852,2750, 2748,2850,2853,2751
    1999, 2849,2951,2954,2852, 2850,2952,2955,2853
    2000, 2951,3053,3056,2954, 2952,3054,3057,2955
    2001, 3053,3155,3158,3056, 3054,3156,3159,3057
    2002, 3155,3257,3260,3158, 3156,3258,3261,3159

*NSET, NSET=FIXED_X
  1, 2, 3, 4, 5, 6, 7, 8
  9, 10, 11, 12, 13, 14, 15, 16
  17, 18, 19, 20, 21, 22, 23, 24
  25, 26, 27, 28, 29, 30, 31, 32
  33, 34, 35, 36, 37, 38, 39, 40
  41, 42, 43, 44, 45, 46, 47, 48
  49, 50, 51, 52, 53, 54, 55, 56
  57, 58, 59, 60, 61, 62, 63, 64
  65, 66, 67, 68, 69, 70, 71, 72
  73, 74, 75, 76, 77, 78, 79, 80
  81, 82, 83, 84, 85, 86, 87, 88
  89, 90, 91, 92, 93, 94, 95, 96
  97, 98, 99, 100, 101, 102

*NSET, NSET=FIXED_Y
  1, 2, 3, 103, 104, 105, 205, 206
  207, 307, 308, 309, 409, 410, 411, 511
  512, 513, 613, 614, 615, 715, 716, 717
  817, 818, 819, 919, 920, 921, 1021, 1022
  1023, 1123, 1124, 1125, 1225, 1226, 1227, 1312
  1313, 1314, 1393, 1394, 1395, 1468, 1469, 1470
  1543, 1544, 1545, 1618, 1619, 1620, 1693, 1694
  1695, 1768, 1769, 1770, 1849, 1850, 1851, 1936
  1937, 1938, 2038, 2039, 2040, 2140, 2141, 2142
  2242, 2243, 2244, 2344, 2345, 2346, 2446, 2447
  2448, 2548, 2549, 2550, 2650, 2651, 2652, 2752
  2753, 2754, 2854, 2855, 2856, 2956, 2957, 2958
  3058, 3059, 3060, 3160, 3161, 3162

*NSET, NSET=FIXED_Z
  1, 4, 7, 10, 13, 16, 19, 22
  25, 28, 31, 34, 37, 40, 43, 46
  49, 52, 55, 58, 61, 64, 67, 70
  73, 76, 79, 82, 85, 88, 91, 94
  97, 100, 103, 106, 109, 112, 115, 118
  121, 124, 127, 130, 133, 136, 139, 142
  145, 148, 151, 154, 157, 160, 163, 166
  169, 172, 175, 178, 181, 184, 187, 190
  193, 196, 199, 202, 205, 208, 211, 214
  217, 220, 223, 226, 229, 232, 235, 238
  241, 244, 247, 250, 253, 256, 259, 262
  265, 268, 271, 274, 277, 280, 283, 286
  289, 292, 295, 298, 301, 304, 307, 310
  313, 316, 319, 322, 325, 328, 331, 334
  337, 340, 343, 346, 349, 352, 355, 358
  361, 364, 367, 370, 373, 376, 379, 382
  385, 388, 391, 394, 397, 400, 403, 406
  409, 412, 415, 418, 421, 424, 427, 430
  433, 436, 439, 442, 445, 448, 451, 454
  457, 460, 463, 466, 469, 472, 475, 478
  481, 484, 487, 490, 493, 496, 499, 502
  505, 508, 511, 514, 517, 520, 523, 526
  529, 532, 535, 538, 541, 544, 547, 550
  553, 556, 559, 562, 565, 568, 571, 574
  577, 580, 583, 586, 589, 592, 595, 598
  601, 604, 607, 610, 613, 616, 619, 622
  625, 628, 631, 634, 637, 640, 643, 646
  649, 652, 655, 658, 661, 664, 667, 670
  673, 676, 679, 682, 685, 688, 691, 694
  697, 700, 703, 706, 709, 712, 715, 718
  721, 724, 727, 730, 733, 736, 739, 742
  745, 748, 751, 754, 757, 760, 763, 766
  769, 772, 775, 778, 781, 784, 787, 790
  793, 796, 799, 802, 805, 808, 811, 814
  817, 820, 823, 826, 829, 832, 835, 838
  841, 844, 847, 850, 853, 856, 859, 862
  865, 868, 871, 874, 877, 880, 883, 886
  889, 892, 895, 898, 901, 904, 907, 910
  913, 916, 919, 922, 925, 928, 931, 934
  937, 940, 943, 946, 949, 952, 955, 958
  961, 964, 967, 970, 973, 976, 979, 982
  985, 988, 991, 994, 997, 1000, 1003, 1006
  1009, 1012, 1015, 1018, 1021, 1024, 1027, 1030
  1033, 1036, 1039, 1042, 1045, 1048, 1051, 1054
  1057, 1060, 1063, 1066, 1069, 1072, 1075, 1078
  1081, 1084, 1087, 1090, 1093, 1096, 1099, 1102
  1105, 1108, 1111, 1114, 1117, 1120, 1123, 1126
  1129, 1132, 1135, 1138, 1141, 1144, 1147, 1150
  1153, 1156, 1159, 1162, 1165, 1168, 1171, 1174
  1177, 1180, 1183, 1186, 1189, 1192, 1195, 1198
  1201, 1204, 1207, 1210, 1213, 1216, 1219, 1222
  1225, 1228, 1231, 1234, 1237, 1240, 1243, 1246
  1249, 1252, 1255, 1258, 1261, 1264, 1267, 1270
  1273, 1276, 1279, 1282, 1285, 1288, 1291, 1294
  1297, 1300, 1303, 1306, 1309, 1312, 1315, 1318
  1321, 1324, 1327, 1330, 1333, 1336, 1339, 1342
  1345, 1348, 1351, 1354, 1357, 1360, 1363, 1366
  1369, 1372, 1375, 1378, 1381, 1384, 1387, 1390
  1393, 1396, 1399, 1402, 1405, 1408, 1411, 1414
  1417, 1420, 1423, 1426, 1429, 1432, 1435, 1438
  1441, 1444, 1447, 1450, 1453, 1456, 1459, 1462
  1465, 1468, 1471, 1474, 1477, 1480, 1483, 1486
  1489, 1492, 1495, 1498, 1501, 1504, 1507, 1510
  1513, 1516, 1519, 1522, 1525, 1528, 1531, 1534
  1537, 1540, 1543, 1546, 1549, 1552, 1555, 1558
  1561, 1564, 1567, 1570, 1573, 1576, 1579, 1582
  1585, 1588, 1591, 1594, 1597, 1600, 1603, 1606
  1609, 1612, 1615, 1618, 1621, 1624, 1627, 1630
  1633, 1636, 1639, 1642, 1645, 1648, 1651, 1654
  1657, 1660, 1663, 1666, 1669, 1672, 1675, 1678
  1681, 1684, 1687, 1690, 1693, 1696, 1699, 1702
  1705, 1708, 1711, 1714, 1717, 1720, 1723, 1726
  1729, 1732, 1735, 1738, 1741, 1744, 1747, 1750
  1753, 1756, 1759, 1762, 1765, 1768, 1771, 1774
  1777, 1780, 1783, 1786, 1789, 1792, 1795, 1798
  1801, 1804, 1807, 1810, 1813, 1816, 1819, 1822
  1825, 1828, 1831, 1834, 1837, 1840, 1843, 1846
  1849, 1852, 1855, 1858, 1861, 1864, 1867, 1870
  1873, 1876, 1879, 1882, 1885, 1888, 1891, 1894
  1897, 1900, 1903, 1906, 1909, 1912, 1915, 1918
  1921, 1924, 1927, 1930, 1933, 1936, 1939, 1942
  1945, 1948, 1951, 1954, 1957, 1960, 1963, 1966
  1969, 1972, 1975, 1978, 1981, 1984, 1987, 1990
  1993, 1996, 1999, 2002, 2005, 2008, 2011, 2014
  2017, 2020, 2023, 2026, 2029, 2032, 2035, 2038
  2041, 2044, 2047, 2050, 2053, 2056, 2059, 2062
  2065, 2068, 2071, 2074, 2077, 2080, 2083, 2086
  2089, 2092, 2095, 2098, 2101, 2104, 2107, 2110
  2113, 2116, 2119, 2122, 2125, 2128, 2131, 2134
  2137, 2140, 2143, 2146, 2149, 2152, 2155, 2158
  2161, 2164, 2167, 2170, 2173, 2176, 2179, 2182
  2185, 2188, 2191, 2194, 2197, 2200, 2203, 2206
  2209, 2212, 2215, 2218, 2221, 2224, 2227, 2230
  2233, 2236, 2239, 2242, 2245, 2248, 2251, 2254
  2257, 2260, 2263, 2266, 2269, 2272, 2275, 2278
  2281, 2284, 2287, 2290, 2293, 2296, 2299, 2302
  2305, 2308, 2311, 2314, 2317, 2320, 2323, 2326
  2329, 2332, 2335, 2338, 2341, 2344, 2347, 2350
  2353, 2356, 2359, 2362, 2365, 2368, 2371, 2374
  2377, 2380, 2383, 2386, 2389, 2392, 2395, 2398
  2401, 2404, 2407, 2410, 2413, 2416, 2419, 2422
  2425, 2428, 2431, 2434, 2437, 2440, 2443, 2446
  2449, 2452, 2455, 2458, 2461, 2464, 2467, 2470
  2473, 2476, 2479, 2482, 2485, 2488, 2491, 2494
  2497, 2500, 2503, 2506, 2509, 2512, 2515, 2518
  2521, 2524, 2527, 2530, 2533, 2536, 2539, 2542
  2545, 2548, 2551, 2554, 2557, 2560, 2563, 2566
  2569, 2572, 2575, 2578, 2581, 2584, 2587, 2590
  2593, 2596, 2599, 2602, 2605, 2608, 2611, 2614
  2617, 2620, 2623, 2626, 2629, 2632, 2635, 2638
  2641, 2644, 2647, 2650, 2653, 2656, 2659, 2662
  2665, 2668, 2671, 2674, 2677, 2680, 2683, 2686
  2689, 2692, 2695, 2698, 2701, 2704, 2707, 2710
  2713, 2716, 2719, 2722, 2725, 2728, 2731, 2734
  2737, 2740, 2743, 2746, 2749, 2752, 2755, 2758
  2761, 2764, 2767, 2770, 2773, 2776, 2779, 2782
  2785, 2788, 2791, 2794, 2797, 2800, 2803, 2806
  2809, 2812, 2815, 2818, 2821, 2824, 2827, 2830
  2833, 2836, 2839, 2842, 2845, 2848, 2851, 2854
  2857, 2860, 2863, 2866, 2869, 2872, 2875, 2878
  2881, 2884, 2887, 2890, 2893, 2896, 2899, 2902
  2905, 2908, 2911, 2914, 2917, 2920, 2923, 2926
  2929, 2932, 2935, 2938, 2941, 2944, 2947, 2950
  2953, 2956, 2959, 2962, 2965, 2968, 2971, 2974
  2977, 2980, 2983, 2986, 2989, 2992, 2995, 2998
  3001, 3004, 3007, 3010, 3013, 3016, 3019, 3022
  3025, 3028, 3031, 3034, 3037, 3040, 3043, 3046
  3049, 3052, 3055, 3058, 3061, 3064, 3067, 3070
  3073, 3076, 3079, 3082, 3085, 3088, 3091, 3094
  3097, 3100, 3103, 3106, 3109, 3112, 3115, 3118
  3121, 3124, 3127, 3130, 3133, 3136, 3139, 3142
  3145, 3148, 3151, 3154, 3157, 3160, 3163, 3166
  3169, 3172, 3175, 3178, 3181, 3184, 3187, 3190
  3193, 3196, 3199, 3202, 3205, 3208, 3211, 3214
  3217, 3220, 3223, 3226, 3229, 3232, 3235, 3238
  3241, 3244, 3247, 3250, 3253, 3256, 3259

*NSET, NSET=LOAD
  3160, 3161, 3162, 3163, 3164, 3165, 3166, 3167
  3168, 3169, 3170, 3171, 3172, 3173, 3174, 3175
  3176, 3177, 3178, 3179, 3180, 3181, 3182, 3183
  3184, 3185, 3186, 3187, 3188, 3189, 3190, 3191
  3192, 3193, 3194, 3195, 3196, 3197, 3198, 3199
  3200, 3201, 3202, 3203, 3204, 3205, 3206, 3207
  3208, 3209, 3210, 3211, 3212, 3213, 3214, 3215
  3216, 3217, 3218, 3219, 3220, 3221, 3222, 3223
  3224, 3225, 3226, 3227, 3228, 3229, 3230, 3231
  3232, 3233, 3234, 3235, 3236, 3237, 3238, 3239
  3240, 3241, 3242, 3243, 3244, 3245, 3246, 3247
  3248, 3249, 3250, 3251, 3252, 3253, 3254, 3255
  3256, 3257, 3258, 3259, 3260, 3261

*MATERIAL, NAME=METAL
*ELASTIC
210000., 0.3
*DENSITY
7.85e-9,

*SOLID SECTION, ELSET=EALL, MATERIAL=METAL

*STEP
*STATIC

*BOUNDARY
  1, 1, 1, 0.0
  2, 1, 1, 0.0
  3, 1, 1, 0.0
  4, 1, 1, 0.0
  5, 1, 1, 0.0
  6, 1, 1, 0.0
  7, 1, 1, 0.0
  8, 1, 1, 0.0
  9, 1, 1, 0.0
  10, 1, 1, 0.0
  11, 1, 1, 0.0
  12, 1, 1, 0.0
  13, 1, 1, 0.0
  14, 1, 1, 0.0
  15, 1, 1, 0.0
  16, 1, 1, 0.0
  17, 1, 1, 0.0
  18, 1, 1, 0.0
  19, 1, 1, 0.0
  20, 1, 1, 0.0
  21, 1, 1, 0.0
  22, 1, 1, 0.0
  23, 1, 1, 0.0
  24, 1, 1, 0.0
  25, 1, 1, 0.0
  26, 1, 1, 0.0
  27, 1, 1, 0.0
  28, 1, 1, 0.0
  29, 1, 1, 0.0
  30, 1, 1, 0.0
  31, 1, 1, 0.0
  32, 1, 1, 0.0
  33, 1, 1, 0.0
  34, 1, 1, 0.0
  35, 1, 1, 0.0
  36, 1, 1, 0.0
  37, 1, 1, 0.0
  38, 1, 1, 0.0
  39, 1, 1, 0.0
  40, 1, 1, 0.0
  41, 1, 1, 0.0
  42, 1, 1, 0.0
  43, 1, 1, 0.0
  44, 1, 1, 0.0
  45, 1, 1, 0.0
  46, 1, 1, 0.0
  47, 1, 1, 0.0
  48, 1, 1, 0.0
  49, 1, 1, 0.0
  50, 1, 1, 0.0
  51, 1, 1, 0.0
  52, 1, 1, 0.0
  53, 1, 1, 0.0
  54, 1, 1, 0.0
  55, 1, 1, 0.0
  56, 1, 1, 0.0
  57, 1, 1, 0.0
  58, 1, 1, 0.0
  59, 1, 1, 0.0
  60, 1, 1, 0.0
  61, 1, 1, 0.0
  62, 1, 1, 0.0
  63, 1, 1, 0.0
  64, 1, 1, 0.0
  65, 1, 1, 0.0
  66, 1, 1, 0.0
  67, 1, 1, 0.0
  68, 1, 1, 0.0
  69, 1, 1, 0.0
  70, 1, 1, 0.0
  71, 1, 1, 0.0
  72, 1, 1, 0.0
  73, 1, 1, 0.0
  74, 1, 1, 0.0
  75, 1, 1, 0.0
  76, 1, 1, 0.0
  77, 1, 1, 0.0
  78, 1, 1, 0.0
  79, 1, 1, 0.0
  80, 1, 1, 0.0
  81, 1, 1, 0.0
  82, 1, 1, 0.0
  83, 1, 1, 0.0
  84, 1, 1, 0.0
  85, 1, 1, 0.0
  86, 1, 1, 0.0
  87, 1, 1, 0.0
  88, 1, 1, 0.0
  89, 1, 1, 0.0
  90, 1, 1, 0.0
  91, 1, 1, 0.0
  92, 1, 1, 0.0
  93, 1, 1, 0.0
  94, 1, 1, 0.0
  95, 1, 1, 0.0
  96, 1, 1, 0.0
  97, 1, 1, 0.0
  98, 1, 1, 0.0
  99, 1, 1, 0.0
  100, 1, 1, 0.0
  101, 1, 1, 0.0
  102, 1, 1, 0.0
  1, 2, 2, 0.0
  2, 2, 2, 0.0
  3, 2, 2, 0.0
  103, 2, 2, 0.0
  104, 2, 2, 0.0
  105, 2, 2, 0.0
  205, 2, 2, 0.0
  206, 2, 2, 0.0
  207, 2, 2, 0.0
  307, 2, 2, 0.0
  308, 2, 2, 0.0
  309, 2, 2, 0.0
  409, 2, 2, 0.0
  410, 2, 2, 0.0
  411, 2, 2, 0.0
  511, 2, 2, 0.0
  512, 2, 2, 0.0
  513, 2, 2, 0.0
  613, 2, 2, 0.0
  614, 2, 2, 0.0
  615, 2, 2, 0.0
  715, 2, 2, 0.0
  716, 2, 2, 0.0
  717, 2, 2, 0.0
  817, 2, 2, 0.0
  818, 2, 2, 0.0
  819, 2, 2, 0.0
  919, 2, 2, 0.0
  920, 2, 2, 0.0
  921, 2, 2, 0.0
  1021, 2, 2, 0.0
  1022, 2, 2, 0.0
  1023, 2, 2, 0.0
  1123, 2, 2, 0.0
  1124, 2, 2, 0.0
  1125, 2, 2, 0.0
  1225, 2, 2, 0.0
  1226, 2, 2, 0.0
  1227, 2, 2, 0.0
  1312, 2, 2, 0.0
  1313, 2, 2, 0.0
  1314, 2, 2, 0.0
  1393, 2, 2, 0.0
  1394, 2, 2, 0.0
  1395, 2, 2, 0.0
  1468, 2, 2, 0.0
  1469, 2, 2, 0.0
  1470, 2, 2, 0.0
  1543, 2, 2, 0.0
  1544, 2, 2, 0.0
  1545, 2, 2, 0.0
  1618, 2, 2, 0.0
  1619, 2, 2, 0.0
  1620, 2, 2, 0.0
  1693, 2, 2, 0.0
  1694, 2, 2, 0.0
  1695, 2, 2, 0.0
  1768, 2, 2, 0.0
  1769, 2, 2, 0.0
  1770, 2, 2, 0.0
  1849, 2, 2, 0.0
  1850, 2, 2, 0.0
  1851, 2, 2, 0.0
  1936, 2, 2, 0.0
  1937, 2, 2, 0.0
  1938, 2, 2, 0.0
  2038, 2, 2, 0.0
  2039, 2, 2, 0.0
  2040, 2, 2, 0.0
  2140, 2, 2, 0.0
  2141, 2, 2, 0.0
  2142, 2, 2, 0.0
  2242, 2, 2, 0.0
  2243, 2, 2, 0.0
  2244, 2, 2, 0.0
  2344, 2, 2, 0.0
  2345, 2, 2, 0.0
  2346, 2, 2, 0.0
  2446, 2, 2, 0.0
  2447, 2, 2, 0.0
  2448, 2, 2, 0.0
  2548, 2, 2, 0.0
  2549, 2, 2, 0.0
  2550, 2, 2, 0.0
  2650, 2, 2, 0.0
  2651, 2, 2, 0.0
  2652, 2, 2, 0.0
  2752, 2, 2, 0.0
  2753, 2, 2, 0.0
  2754, 2, 2, 0.0
  2854, 2, 2, 0.0
  2855, 2, 2, 0.0
  2856, 2, 2, 0.0
  2956, 2, 2, 0.0
  2957, 2, 2, 0.0
  2958, 2, 2, 0.0
  3058, 2, 2, 0.0
  3059, 2, 2, 0.0
  3060, 2, 2, 0.0
  3160, 2, 2, 0.0
  3161, 2, 2, 0.0
  3162, 2, 2, 0.0
  1, 3, 3, 0.0
  4, 3, 3, 0.0
  7, 3, 3, 0.0
  10, 3, 3, 0.0
  13, 3, 3, 0.0
  16, 3, 3, 0.0
  19, 3, 3, 0.0
  22, 3, 3, 0.0
  25, 3, 3, 0.0
  28, 3, 3, 0.0
  31, 3, 3, 0.0
  34, 3, 3, 0.0
  37, 3, 3, 0.0
  40, 3, 3, 0.0
  43, 3, 3, 0.0
  46, 3, 3, 0.0
  49, 3, 3, 0.0
  52, 3, 3, 0.0
  55, 3, 3, 0.0
  58, 3, 3, 0.0
  61, 3, 3, 0.0
  64, 3, 3, 0.0
  67, 3, 3, 0.0
  70, 3, 3, 0.0
  73, 3, 3, 0.0
  76, 3, 3, 0.0
  79, 3, 3, 0.0
  82, 3, 3, 0.0
  85, 3, 3, 0.0
  88, 3, 3, 0.0
  91, 3, 3, 0.0
  94, 3, 3, 0.0
  97, 3, 3, 0.0
  100, 3, 3, 0.0
  103, 3, 3, 0.0
  106, 3, 3, 0.0
  109, 3, 3, 0.0
  112, 3, 3, 0.0
  115, 3, 3, 0.0
  118, 3, 3, 0.0
  121, 3, 3, 0.0
  124, 3, 3, 0.0
  127, 3, 3, 0.0
  130, 3, 3, 0.0
  133, 3, 3, 0.0
  136, 3, 3, 0.0
  139, 3, 3, 0.0
  142, 3, 3, 0.0
  145, 3, 3, 0.0
  148, 3, 3, 0.0
  151, 3, 3, 0.0
  154, 3, 3, 0.0
  157, 3, 3, 0.0
  160, 3, 3, 0.0
  163, 3, 3, 0.0
  166, 3, 3, 0.0
  169, 3, 3, 0.0
  172, 3, 3, 0.0
  175, 3, 3, 0.0
  178, 3, 3, 0.0
  181, 3, 3, 0.0
  184, 3, 3, 0.0
  187, 3, 3, 0.0
  190, 3, 3, 0.0
  193, 3, 3, 0.0
  196, 3, 3, 0.0
  199, 3, 3, 0.0
  202, 3, 3, 0.0
  205, 3, 3, 0.0
  208, 3, 3, 0.0
  211, 3, 3, 0.0
  214, 3, 3, 0.0
  217, 3, 3, 0.0
  220, 3, 3, 0.0
  223, 3, 3, 0.0
  226, 3, 3, 0.0
  229, 3, 3, 0.0
  232, 3, 3, 0.0
  235, 3, 3, 0.0
  238, 3, 3, 0.0
  241, 3, 3, 0.0
  244, 3, 3, 0.0
  247, 3, 3, 0.0
  250, 3, 3, 0.0
  253, 3, 3, 0.0
  256, 3, 3, 0.0
  259, 3, 3, 0.0
  262, 3, 3, 0.0
  265, 3, 3, 0.0
  268, 3, 3, 0.0
  271, 3, 3, 0.0
  274, 3, 3, 0.0
  277, 3, 3, 0.0
  280, 3, 3, 0.0
  283, 3, 3, 0.0
  286, 3, 3, 0.0
  289, 3, 3, 0.0
  292, 3, 3, 0.0
  295, 3, 3, 0.0
  298, 3, 3, 0.0
  301, 3, 3, 0.0
  304, 3, 3, 0.0
  307, 3, 3, 0.0
  310, 3, 3, 0.0
  313, 3, 3, 0.0
  316, 3, 3, 0.0
  319, 3, 3, 0.0
  322, 3, 3, 0.0
  325, 3, 3, 0.0
  328, 3, 3, 0.0
  331, 3, 3, 0.0
  334, 3, 3, 0.0
  337, 3, 3, 0.0
  340, 3, 3, 0.0
  343, 3, 3, 0.0
  346, 3, 3, 0.0
  349, 3, 3, 0.0
  352, 3, 3, 0.0
  355, 3, 3, 0.0
  358, 3, 3, 0.0
  361, 3, 3, 0.0
  364, 3, 3, 0.0
  367, 3, 3, 0.0
  370, 3, 3, 0.0
  373, 3, 3, 0.0
  376, 3, 3, 0.0
  379, 3, 3, 0.0
  382, 3, 3, 0.0
  385, 3, 3, 0.0
  388, 3, 3, 0.0
  391, 3, 3, 0.0
  394, 3, 3, 0.0
  397, 3, 3, 0.0
  400, 3, 3, 0.0
  403, 3, 3, 0.0
  406, 3, 3, 0.0
  409, 3, 3, 0.0
  412, 3, 3, 0.0
  415, 3, 3, 0.0
  418, 3, 3, 0.0
  421, 3, 3, 0.0
  424, 3, 3, 0.0
  427, 3, 3, 0.0
  430, 3, 3, 0.0
  433, 3, 3, 0.0
  436, 3, 3, 0.0
  439, 3, 3, 0.0
  442, 3, 3, 0.0
  445, 3, 3, 0.0
  448, 3, 3, 0.0
  451, 3, 3, 0.0
  454, 3, 3, 0.0
  457, 3, 3, 0.0
  460, 3, 3, 0.0
  463, 3, 3, 0.0
  466, 3, 3, 0.0
  469, 3, 3, 0.0
  472, 3, 3, 0.0
  475, 3, 3, 0.0
  478, 3, 3, 0.0
  481, 3, 3, 0.0
  484, 3, 3, 0.0
  487, 3, 3, 0.0
  490, 3, 3, 0.0
  493, 3, 3, 0.0
  496, 3, 3, 0.0
  499, 3, 3, 0.0
  502, 3, 3, 0.0
  505, 3, 3, 0.0
  508, 3, 3, 0.0
  511, 3, 3, 0.0
  514, 3, 3, 0.0
  517, 3, 3, 0.0
  520, 3, 3, 0.0
  523, 3, 3, 0.0
  526, 3, 3, 0.0
  529, 3, 3, 0.0
  532, 3, 3, 0.0
  535, 3, 3, 0.0
  538, 3, 3, 0.0
  541, 3, 3, 0.0
  544, 3, 3, 0.0
  547, 3, 3, 0.0
  550, 3, 3, 0.0
  553, 3, 3, 0.0
  556, 3, 3, 0.0
  559, 3, 3, 0.0
  562, 3, 3, 0.0
  565, 3, 3, 0.0
  568, 3, 3, 0.0
  571, 3, 3, 0.0
  574, 3, 3, 0.0
  577, 3, 3, 0.0
  580, 3, 3, 0.0
  583, 3, 3, 0.0
  586, 3, 3, 0.0
  589, 3, 3, 0.0
  592, 3, 3, 0.0
  595, 3, 3, 0.0
  598, 3, 3, 0.0
  601, 3, 3, 0.0
  604, 3, 3, 0.0
  607, 3, 3, 0.0
  610, 3, 3, 0.0
  613, 3, 3, 0.0
  616, 3, 3, 0.0
  619, 3, 3, 0.0
  622, 3, 3, 0.0
  625, 3, 3, 0.0
  628, 3, 3, 0.0
  631, 3, 3, 0.0
  634, 3, 3, 0.0
  637, 3, 3, 0.0
  640, 3, 3, 0.0
  643, 3, 3, 0.0
  646, 3, 3, 0.0
  649, 3, 3, 0.0
  652, 3, 3, 0.0
  655, 3, 3, 0.0
  658, 3, 3, 0.0
  661, 3, 3, 0.0
  664, 3, 3, 0.0
  667, 3, 3, 0.0
  670, 3, 3, 0.0
  673, 3, 3, 0.0
  676, 3, 3, 0.0
  679, 3, 3, 0.0
  682, 3, 3, 0.0
  685, 3, 3, 0.0
  688, 3, 3, 0.0
  691, 3, 3, 0.0
  694, 3, 3, 0.0
  697, 3, 3, 0.0
  700, 3, 3, 0.0
  703, 3, 3, 0.0
  706, 3, 3, 0.0
  709, 3, 3, 0.0
  712, 3, 3, 0.0
  715, 3, 3, 0.0
  718, 3, 3, 0.0
  721, 3, 3, 0.0
  724, 3, 3, 0.0
  727, 3, 3, 0.0
  730, 3, 3, 0.0
  733, 3, 3, 0.0
  736, 3, 3, 0.0
  739, 3, 3, 0.0
  742, 3, 3, 0.0
  745, 3, 3, 0.0
  748, 3, 3, 0.0
  751, 3, 3, 0.0
  754, 3, 3, 0.0
  757, 3, 3, 0.0
  760, 3, 3, 0.0
  763, 3, 3, 0.0
  766, 3, 3, 0.0
  769, 3, 3, 0.0
  772, 3, 3, 0.0
  775, 3, 3, 0.0
  778, 3, 3, 0.0
  781, 3, 3, 0.0
  784, 3, 3, 0.0
  787, 3, 3, 0.0
  790, 3, 3, 0.0
  793, 3, 3, 0.0
  796, 3, 3, 0.0
  799, 3, 3, 0.0
  802, 3, 3, 0.0
  805, 3, 3, 0.0
  808, 3, 3, 0.0
  811, 3, 3, 0.0
  814, 3, 3, 0.0
  817, 3, 3, 0.0
  820, 3, 3, 0.0
  823, 3, 3, 0.0
  826, 3, 3, 0.0
  829, 3, 3, 0.0
  832, 3, 3, 0.0
  835, 3, 3, 0.0
  838, 3, 3, 0.0
  841, 3, 3, 0.0
  844, 3, 3, 0.0
  847, 3, 3, 0.0
  850, 3, 3, 0.0
  853, 3, 3, 0.0
  856, 3, 3, 0.0
  859, 3, 3, 0.0
  862, 3, 3, 0.0
  865, 3, 3, 0.0
  868, 3, 3, 0.0
  871, 3, 3, 0.0
  874, 3, 3, 0.0
  877, 3, 3, 0.0
  880, 3, 3, 0.0
  883, 3, 3, 0.0
  886, 3, 3, 0.0
  889, 3, 3, 0.0
  892, 3, 3, 0.0
  895, 3, 3, 0.0
  898, 3, 3, 0.0
  901, 3, 3, 0.0
  904, 3, 3, 0.0
  907, 3, 3, 0.0
  910, 3, 3, 0.0
  913, 3, 3, 0.0
  916, 3, 3, 0.0
  919, 3, 3, 0.0
  922, 3, 3, 0.0
  925, 3, 3, 0.0
  928, 3, 3, 0.0
  931, 3, 3, 0.0
  934, 3, 3, 0.0
  937, 3, 3, 0.0
  940, 3, 3, 0.0
  943, 3, 3, 0.0
  946, 3, 3, 0.0
  949, 3, 3, 0.0
  952, 3, 3, 0.0
  955, 3, 3, 0.0
  958, 3, 3, 0.0
  961, 3, 3, 0.0
  964, 3, 3, 0.0
  967, 3, 3, 0.0
  970, 3, 3, 0.0
  973, 3, 3, 0.0
  976, 3, 3, 0.0
  979, 3, 3, 0.0
  982, 3, 3, 0.0
  985, 3, 3, 0.0
  988, 3, 3, 0.0
  991, 3, 3, 0.0
  994, 3, 3, 0.0
  997, 3, 3, 0.0
  1000, 3, 3, 0.0
  1003, 3, 3, 0.0
  1006, 3, 3, 0.0
  1009, 3, 3, 0.0
  1012, 3, 3, 0.0
  1015, 3, 3, 0.0
  1018, 3, 3, 0.0
  1021, 3, 3, 0.0
  1024, 3, 3, 0.0
  1027, 3, 3, 0.0
  1030, 3, 3, 0.0
  1033, 3, 3, 0.0
  1036, 3, 3, 0.0
  1039, 3, 3, 0.0
  1042, 3, 3, 0.0
  1045, 3, 3, 0.0
  1048, 3, 3, 0.0
  1051, 3, 3, 0.0
  1054, 3, 3, 0.0
  1057, 3, 3, 0.0
  1060, 3, 3, 0.0
  1063, 3, 3, 0.0
  1066, 3, 3, 0.0
  1069, 3, 3, 0.0
  1072, 3, 3, 0.0
  1075, 3, 3, 0.0
  1078, 3, 3, 0.0
  1081, 3, 3, 0.0
  1084, 3, 3, 0.0
  1087, 3, 3, 0.0
  1090, 3, 3, 0.0
  1093, 3, 3, 0.0
  1096, 3, 3, 0.0
  1099, 3, 3, 0.0
  1102, 3, 3, 0.0
  1105, 3, 3, 0.0
  1108, 3, 3, 0.0
  1111, 3, 3, 0.0
  1114, 3, 3, 0.0
  1117, 3, 3, 0.0
  1120, 3, 3, 0.0
  1123, 3, 3, 0.0
  1126, 3, 3, 0.0
  1129, 3, 3, 0.0
  1132, 3, 3, 0.0
  1135, 3, 3, 0.0
  1138, 3, 3, 0.0
  1141, 3, 3, 0.0
  1144, 3, 3, 0.0
  1147, 3, 3, 0.0
  1150, 3, 3, 0.0
  1153, 3, 3, 0.0
  1156, 3, 3, 0.0
  1159, 3, 3, 0.0
  1162, 3, 3, 0.0
  1165, 3, 3, 0.0
  1168, 3, 3, 0.0
  1171, 3, 3, 0.0
  1174, 3, 3, 0.0
  1177, 3, 3, 0.0
  1180, 3, 3, 0.0
  1183, 3, 3, 0.0
  1186, 3, 3, 0.0
  1189, 3, 3, 0.0
  1192, 3, 3, 0.0
  1195, 3, 3, 0.0
  1198, 3, 3, 0.0
  1201, 3, 3, 0.0
  1204, 3, 3, 0.0
  1207, 3, 3, 0.0
  1210, 3, 3, 0.0
  1213, 3, 3, 0.0
  1216, 3, 3, 0.0
  1219, 3, 3, 0.0
  1222, 3, 3, 0.0
  1225, 3, 3, 0.0
  1228, 3, 3, 0.0
  1231, 3, 3, 0.0
  1234, 3, 3, 0.0
  1237, 3, 3, 0.0
  1240, 3, 3, 0.0
  1243, 3, 3, 0.0
  1246, 3, 3, 0.0
  1249, 3, 3, 0.0
  1252, 3, 3, 0.0
  1255, 3, 3, 0.0
  1258, 3, 3, 0.0
  1261, 3, 3, 0.0
  1264, 3, 3, 0.0
  1267, 3, 3, 0.0
  1270, 3, 3, 0.0
  1273, 3, 3, 0.0
  1276, 3, 3, 0.0
  1279, 3, 3, 0.0
  1282, 3, 3, 0.0
  1285, 3, 3, 0.0
  1288, 3, 3, 0.0
  1291, 3, 3, 0.0
  1294, 3, 3, 0.0
  1297, 3, 3, 0.0
  1300, 3, 3, 0.0
  1303, 3, 3, 0.0
  1306, 3, 3, 0.0
  1309, 3, 3, 0.0
  1312, 3, 3, 0.0
  1315, 3, 3, 0.0
  1318, 3, 3, 0.0
  1321, 3, 3, 0.0
  1324, 3, 3, 0.0
  1327, 3, 3, 0.0
  1330, 3, 3, 0.0
  1333, 3, 3, 0.0
  1336, 3, 3, 0.0
  1339, 3, 3, 0.0
  1342, 3, 3, 0.0
  1345, 3, 3, 0.0
  1348, 3, 3, 0.0
  1351, 3, 3, 0.0
  1354, 3, 3, 0.0
  1357, 3, 3, 0.0
  1360, 3, 3, 0.0
  1363, 3, 3, 0.0
  1366, 3, 3, 0.0
  1369, 3, 3, 0.0
  1372, 3, 3, 0.0
  1375, 3, 3, 0.0
  1378, 3, 3, 0.0
  1381, 3, 3, 0.0
  1384, 3, 3, 0.0
  1387, 3, 3, 0.0
  1390, 3, 3, 0.0
  1393, 3, 3, 0.0
  1396, 3, 3, 0.0
  1399, 3, 3, 0.0
  1402, 3, 3, 0.0
  1405, 3, 3, 0.0
  1408, 3, 3, 0.0
  1411, 3, 3, 0.0
  1414, 3, 3, 0.0
  1417, 3, 3, 0.0
  1420, 3, 3, 0.0
  1423, 3, 3, 0.0
  1426, 3, 3, 0.0
  1429, 3, 3, 0.0
  1432, 3, 3, 0.0
  1435, 3, 3, 0.0
  1438, 3, 3, 0.0
  1441, 3, 3, 0.0
  1444, 3, 3, 0.0
  1447, 3, 3, 0.0
  1450, 3, 3, 0.0
  1453, 3, 3, 0.0
  1456, 3, 3, 0.0
  1459, 3, 3, 0.0
  1462, 3, 3, 0.0
  1465, 3, 3, 0.0
  1468, 3, 3, 0.0
  1471, 3, 3, 0.0
  1474, 3, 3, 0.0
  1477, 3, 3, 0.0
  1480, 3, 3, 0.0
  1483, 3, 3, 0.0
  1486, 3, 3, 0.0
  1489, 3, 3, 0.0
  1492, 3, 3, 0.0
  1495, 3, 3, 0.0
  1498, 3, 3, 0.0
  1501, 3, 3, 0.0
  1504, 3, 3, 0.0
  1507, 3, 3, 0.0
  1510, 3, 3, 0.0
  1513, 3, 3, 0.0
  1516, 3, 3, 0.0
  1519, 3, 3, 0.0
  1522, 3, 3, 0.0
  1525, 3, 3, 0.0
  1528, 3, 3, 0.0
  1531, 3, 3, 0.0
  1534, 3, 3, 0.0
  1537, 3, 3, 0.0
  1540, 3, 3, 0.0
  1543, 3, 3, 0.0
  1546, 3, 3, 0.0
  1549, 3, 3, 0.0
  1552, 3, 3, 0.0
  1555, 3, 3, 0.0
  1558, 3, 3, 0.0
  1561, 3, 3, 0.0
  1564, 3, 3, 0.0
  1567, 3, 3, 0.0
  1570, 3, 3, 0.0
  1573, 3, 3, 0.0
  1576, 3, 3, 0.0
  1579, 3, 3, 0.0
  1582, 3, 3, 0.0
  1585, 3, 3, 0.0
  1588, 3, 3, 0.0
  1591, 3, 3, 0.0
  1594, 3, 3, 0.0
  1597, 3, 3, 0.0
  1600, 3, 3, 0.0
  1603, 3, 3, 0.0
  1606, 3, 3, 0.0
  1609, 3, 3, 0.0
  1612, 3, 3, 0.0
  1615, 3, 3, 0.0
  1618, 3, 3, 0.0
  1621, 3, 3, 0.0
  1624, 3, 3, 0.0
  1627, 3, 3, 0.0
  1630, 3, 3, 0.0
  1633, 3, 3, 0.0
  1636, 3, 3, 0.0
  1639, 3, 3, 0.0
  1642, 3, 3, 0.0
  1645, 3, 3, 0.0
  1648, 3, 3, 0.0
  1651, 3, 3, 0.0
  1654, 3, 3, 0.0
  1657, 3, 3, 0.0
  1660, 3, 3, 0.0
  1663, 3, 3, 0.0
  1666, 3, 3, 0.0
  1669, 3, 3, 0.0
  1672, 3, 3, 0.0
  1675, 3, 3, 0.0
  1678, 3, 3, 0.0
  1681, 3, 3, 0.0
  1684, 3, 3, 0.0
  1687, 3, 3, 0.0
  1690, 3, 3, 0.0
  1693, 3, 3, 0.0
  1696, 3, 3, 0.0
  1699, 3, 3, 0.0
  1702, 3, 3, 0.0
  1705, 3, 3, 0.0
  1708, 3, 3, 0.0
  1711, 3, 3, 0.0
  1714, 3, 3, 0.0
  1717, 3, 3, 0.0
  1720, 3, 3, 0.0
  1723, 3, 3, 0.0
  1726, 3, 3, 0.0
  1729, 3, 3, 0.0
  1732, 3, 3, 0.0
  1735, 3, 3, 0.0
  1738, 3, 3, 0.0
  1741, 3, 3, 0.0
  1744, 3, 3, 0.0
  1747, 3, 3, 0.0
  1750, 3, 3, 0.0
  1753, 3, 3, 0.0
  1756, 3, 3, 0.0
  1759, 3, 3, 0.0
  1762, 3, 3, 0.0
  1765, 3, 3, 0.0
  1768, 3, 3, 0.0
  1771, 3, 3, 0.0
  1774, 3, 3, 0.0
  1777, 3, 3, 0.0
  1780, 3, 3, 0.0
  1783, 3, 3, 0.0
  1786, 3, 3, 0.0
  1789, 3, 3, 0.0
  1792, 3, 3, 0.0
  1795, 3, 3, 0.0
  1798, 3, 3, 0.0
  1801, 3, 3, 0.0
  1804, 3, 3, 0.0
  1807, 3, 3, 0.0
  1810, 3, 3, 0.0
  1813, 3, 3, 0.0
  1816, 3, 3, 0.0
  1819, 3, 3, 0.0
  1822, 3, 3, 0.0
  1825, 3, 3, 0.0
  1828, 3, 3, 0.0
  1831, 3, 3, 0.0
  1834, 3, 3, 0.0
  1837, 3, 3, 0.0
  1840, 3, 3, 0.0
  1843, 3, 3, 0.0
  1846, 3, 3, 0.0
  1849, 3, 3, 0.0
  1852, 3, 3, 0.0
  1855, 3, 3, 0.0
  1858, 3, 3, 0.0
  1861, 3, 3, 0.0
  1864, 3, 3, 0.0
  1867, 3, 3, 0.0
  1870, 3, 3, 0.0
  1873, 3, 3, 0.0
  1876, 3, 3, 0.0
  1879, 3, 3, 0.0
  1882, 3, 3, 0.0
  1885, 3, 3, 0.0
  1888, 3, 3, 0.0
  1891, 3, 3, 0.0
  1894, 3, 3, 0.0
  1897, 3, 3, 0.0
  1900, 3, 3, 0.0
  1903, 3, 3, 0.0
  1906, 3, 3, 0.0
  1909, 3, 3, 0.0
  1912, 3, 3, 0.0
  1915, 3, 3, 0.0
  1918, 3, 3, 0.0
  1921, 3, 3, 0.0
  1924, 3, 3, 0.0
  1927, 3, 3, 0.0
  1930, 3, 3, 0.0
  1933, 3, 3, 0.0
  1936, 3, 3, 0.0
  1939, 3, 3, 0.0
  1942, 3, 3, 0.0
  1945, 3, 3, 0.0
  1948, 3, 3, 0.0
  1951, 3, 3, 0.0
  1954, 3, 3, 0.0
  1957, 3, 3, 0.0
  1960, 3, 3, 0.0
  1963, 3, 3, 0.0
  1966, 3, 3, 0.0
  1969, 3, 3, 0.0
  1972, 3, 3, 0.0
  1975, 3, 3, 0.0
  1978, 3, 3, 0.0
  1981, 3, 3, 0.0
  1984, 3, 3, 0.0
  1987, 3, 3, 0.0
  1990, 3, 3, 0.0
  1993, 3, 3, 0.0
  1996, 3, 3, 0.0
  1999, 3, 3, 0.0
  2002, 3, 3, 0.0
  2005, 3, 3, 0.0
  2008, 3, 3, 0.0
  2011, 3, 3, 0.0
  2014, 3, 3, 0.0
  2017, 3, 3, 0.0
  2020, 3, 3, 0.0
  2023, 3, 3, 0.0
  2026, 3, 3, 0.0
  2029, 3, 3, 0.0
  2032, 3, 3, 0.0
  2035, 3, 3, 0.0
  2038, 3, 3, 0.0
  2041, 3, 3, 0.0
  2044, 3, 3, 0.0
  2047, 3, 3, 0.0
  2050, 3, 3, 0.0
  2053, 3, 3, 0.0
  2056, 3, 3, 0.0
  2059, 3, 3, 0.0
  2062, 3, 3, 0.0
  2065, 3, 3, 0.0
  2068, 3, 3, 0.0
  2071, 3, 3, 0.0
  2074, 3, 3, 0.0
  2077, 3, 3, 0.0
  2080, 3, 3, 0.0
  2083, 3, 3, 0.0
  2086, 3, 3, 0.0
  2089, 3, 3, 0.0
  2092, 3, 3, 0.0
  2095, 3, 3, 0.0
  2098, 3, 3, 0.0
  2101, 3, 3, 0.0
  2104, 3, 3, 0.0
  2107, 3, 3, 0.0
  2110, 3, 3, 0.0
  2113, 3, 3, 0.0
  2116, 3, 3, 0.0
  2119, 3, 3, 0.0
  2122, 3, 3, 0.0
  2125, 3, 3, 0.0
  2128, 3, 3, 0.0
  2131, 3, 3, 0.0
  2134, 3, 3, 0.0
  2137, 3, 3, 0.0
  2140, 3, 3, 0.0
  2143, 3, 3, 0.0
  2146, 3, 3, 0.0
  2149, 3, 3, 0.0
  2152, 3, 3, 0.0
  2155, 3, 3, 0.0
  2158, 3, 3, 0.0
  2161, 3, 3, 0.0
  2164, 3, 3, 0.0
  2167, 3, 3, 0.0
  2170, 3, 3, 0.0
  2173, 3, 3, 0.0
  2176, 3, 3, 0.0
  2179, 3, 3, 0.0
  2182, 3, 3, 0.0
  2185, 3, 3, 0.0
  2188, 3, 3, 0.0
  2191, 3, 3, 0.0
  2194, 3, 3, 0.0
  2197, 3, 3, 0.0
  2200, 3, 3, 0.0
  2203, 3, 3, 0.0
  2206, 3, 3, 0.0
  2209, 3, 3, 0.0
  2212, 3, 3, 0.0
  2215, 3, 3, 0.0
  2218, 3, 3, 0.0
  2221, 3, 3, 0.0
  2224, 3, 3, 0.0
  2227, 3, 3, 0.0
  2230, 3, 3, 0.0
  2233, 3, 3, 0.0
  2236, 3, 3, 0.0
  2239, 3, 3, 0.0
  2242, 3, 3, 0.0
  2245, 3, 3, 0.0
  2248, 3, 3, 0.0
  2251, 3, 3, 0.0
  2254, 3, 3, 0.0
  2257, 3, 3, 0.0
  2260, 3, 3, 0.0
  2263, 3, 3, 0.0
  2266, 3, 3, 0.0
  2269, 3, 3, 0.0
  2272, 3, 3, 0.0
  2275, 3, 3, 0.0
  2278, 3, 3, 0.0
  2281, 3, 3, 0.0
  2284, 3, 3, 0.0
  2287, 3, 3, 0.0
  2290, 3, 3, 0.0
  2293, 3, 3, 0.0
  2296, 3, 3, 0.0
  2299, 3, 3, 0.0
  2302, 3, 3, 0.0
  2305, 3, 3, 0.0
  2308, 3, 3, 0.0
  2311, 3, 3, 0.0
  2314, 3, 3, 0.0
  2317, 3, 3, 0.0
  2320, 3, 3, 0.0
  2323, 3, 3, 0.0
  2326, 3, 3, 0.0
  2329, 3, 3, 0.0
  2332, 3, 3, 0.0
  2335, 3, 3, 0.0
  2338, 3, 3, 0.0
  2341, 3, 3, 0.0
  2344, 3, 3, 0.0
  2347, 3, 3, 0.0
  2350, 3, 3, 0.0
  2353, 3, 3, 0.0
  2356, 3, 3, 0.0
  2359, 3, 3, 0.0
  2362, 3, 3, 0.0
  2365, 3, 3, 0.0
  2368, 3, 3, 0.0
  2371, 3, 3, 0.0
  2374, 3, 3, 0.0
  2377, 3, 3, 0.0
  2380, 3, 3, 0.0
  2383, 3, 3, 0.0
  2386, 3, 3, 0.0
  2389, 3, 3, 0.0
  2392, 3, 3, 0.0
  2395, 3, 3, 0.0
  2398, 3, 3, 0.0
  2401, 3, 3, 0.0
  2404, 3, 3, 0.0
  2407, 3, 3, 0.0
  2410, 3, 3, 0.0
  2413, 3, 3, 0.0
  2416, 3, 3, 0.0
  2419, 3, 3, 0.0
  2422, 3, 3, 0.0
  2425, 3, 3, 0.0
  2428, 3, 3, 0.0
  2431, 3, 3, 0.0
  2434, 3, 3, 0.0
  2437, 3, 3, 0.0
  2440, 3, 3, 0.0
  2443, 3, 3, 0.0
  2446, 3, 3, 0.0
  2449, 3, 3, 0.0
  2452, 3, 3, 0.0
  2455, 3, 3, 0.0
  2458, 3, 3, 0.0
  2461, 3, 3, 0.0
  2464, 3, 3, 0.0
  2467, 3, 3, 0.0
  2470, 3, 3, 0.0
  2473, 3, 3, 0.0
  2476, 3, 3, 0.0
  2479, 3, 3, 0.0
  2482, 3, 3, 0.0
  2485, 3, 3, 0.0
  2488, 3, 3, 0.0
  2491, 3, 3, 0.0
  2494, 3, 3, 0.0
  2497, 3, 3, 0.0
  2500, 3, 3, 0.0
  2503, 3, 3, 0.0
  2506, 3, 3, 0.0
  2509, 3, 3, 0.0
  2512, 3, 3, 0.0
  2515, 3, 3, 0.0
  2518, 3, 3, 0.0
  2521, 3, 3, 0.0
  2524, 3, 3, 0.0
  2527, 3, 3, 0.0
  2530, 3, 3, 0.0
  2533, 3, 3, 0.0
  2536, 3, 3, 0.0
  2539, 3, 3, 0.0
  2542, 3, 3, 0.0
  2545, 3, 3, 0.0
  2548, 3, 3, 0.0
  2551, 3, 3, 0.0
  2554, 3, 3, 0.0
  2557, 3, 3, 0.0
  2560, 3, 3, 0.0
  2563, 3, 3, 0.0
  2566, 3, 3, 0.0
  2569, 3, 3, 0.0
  2572, 3, 3, 0.0
  2575, 3, 3, 0.0
  2578, 3, 3, 0.0
  2581, 3, 3, 0.0
  2584, 3, 3, 0.0
  2587, 3, 3, 0.0
  2590, 3, 3, 0.0
  2593, 3, 3, 0.0
  2596, 3, 3, 0.0
  2599, 3, 3, 0.0
  2602, 3, 3, 0.0
  2605, 3, 3, 0.0
  2608, 3, 3, 0.0
  2611, 3, 3, 0.0
  2614, 3, 3, 0.0
  2617, 3, 3, 0.0
  2620, 3, 3, 0.0
  2623, 3, 3, 0.0
  2626, 3, 3, 0.0
  2629, 3, 3, 0.0
  2632, 3, 3, 0.0
  2635, 3, 3, 0.0
  2638, 3, 3, 0.0
  2641, 3, 3, 0.0
  2644, 3, 3, 0.0
  2647, 3, 3, 0.0
  2650, 3, 3, 0.0
  2653, 3, 3, 0.0
  2656, 3, 3, 0.0
  2659, 3, 3, 0.0
  2662, 3, 3, 0.0
  2665, 3, 3, 0.0
  2668, 3, 3, 0.0
  2671, 3, 3, 0.0
  2674, 3, 3, 0.0
  2677, 3, 3, 0.0
  2680, 3, 3, 0.0
  2683, 3, 3, 0.0
  2686, 3, 3, 0.0
  2689, 3, 3, 0.0
  2692, 3, 3, 0.0
  2695, 3, 3, 0.0
  2698, 3, 3, 0.0
  2701, 3, 3, 0.0
  2704, 3, 3, 0.0
  2707, 3, 3, 0.0
  2710, 3, 3, 0.0
  2713, 3, 3, 0.0
  2716, 3, 3, 0.0
  2719, 3, 3, 0.0
  2722, 3, 3, 0.0
  2725, 3, 3, 0.0
  2728, 3, 3, 0.0
  2731, 3, 3, 0.0
  2734, 3, 3, 0.0
  2737, 3, 3, 0.0
  2740, 3, 3, 0.0
  2743, 3, 3, 0.0
  2746, 3, 3, 0.0
  2749, 3, 3, 0.0
  2752, 3, 3, 0.0
  2755, 3, 3, 0.0
  2758, 3, 3, 0.0
  2761, 3, 3, 0.0
  2764, 3, 3, 0.0
  2767, 3, 3, 0.0
  2770, 3, 3, 0.0
  2773, 3, 3, 0.0
  2776, 3, 3, 0.0
  2779, 3, 3, 0.0
  2782, 3, 3, 0.0
  2785, 3, 3, 0.0
  2788, 3, 3, 0.0
  2791, 3, 3, 0.0
  2794, 3, 3, 0.0
  2797, 3, 3, 0.0
  2800, 3, 3, 0.0
  2803, 3, 3, 0.0
  2806, 3, 3, 0.0
  2809, 3, 3, 0.0
  2812, 3, 3, 0.0
  2815, 3, 3, 0.0
  2818, 3, 3, 0.0
  2821, 3, 3, 0.0
  2824, 3, 3, 0.0
  2827, 3, 3, 0.0
  2830, 3, 3, 0.0
  2833, 3, 3, 0.0
  2836, 3, 3, 0.0
  2839, 3, 3, 0.0
  2842, 3, 3, 0.0
  2845, 3, 3, 0.0
  2848, 3, 3, 0.0
  2851, 3, 3, 0.0
  2854, 3, 3, 0.0
  2857, 3, 3, 0.0
  2860, 3, 3, 0.0
  2863, 3, 3, 0.0
  2866, 3, 3, 0.0
  2869, 3, 3, 0.0
  2872, 3, 3, 0.0
  2875, 3, 3, 0.0
  2878, 3, 3, 0.0
  2881, 3, 3, 0.0
  2884, 3, 3, 0.0
  2887, 3, 3, 0.0
  2890, 3, 3, 0.0
  2893, 3, 3, 0.0
  2896, 3, 3, 0.0
  2899, 3, 3, 0.0
  2902, 3, 3, 0.0
  2905, 3, 3, 0.0
  2908, 3, 3, 0.0
  2911, 3, 3, 0.0
  2914, 3, 3, 0.0
  2917, 3, 3, 0.0
  2920, 3, 3, 0.0
  2923, 3, 3, 0.0
  2926, 3, 3, 0.0
  2929, 3, 3, 0.0
  2932, 3, 3, 0.0
  2935, 3, 3, 0.0
  2938, 3, 3, 0.0
  2941, 3, 3, 0.0
  2944, 3, 3, 0.0
  2947, 3, 3, 0.0
  2950, 3, 3, 0.0
  2953, 3, 3, 0.0
  2956, 3, 3, 0.0
  2959, 3, 3, 0.0
  2962, 3, 3, 0.0
  2965, 3, 3, 0.0
  2968, 3, 3, 0.0
  2971, 3, 3, 0.0
  2974, 3, 3, 0.0
  2977, 3, 3, 0.0
  2980, 3, 3, 0.0
  2983, 3, 3, 0.0
  2986, 3, 3, 0.0
  2989, 3, 3, 0.0
  2992, 3, 3, 0.0
  2995, 3, 3, 0.0
  2998, 3, 3, 0.0
  3001, 3, 3, 0.0
  3004, 3, 3, 0.0
  3007, 3, 3, 0.0
  3010, 3, 3, 0.0
  3013, 3, 3, 0.0
  3016, 3, 3, 0.0
  3019, 3, 3, 0.0
  3022, 3, 3, 0.0
  3025, 3, 3, 0.0
  3028, 3, 3, 0.0
  3031, 3, 3, 0.0
  3034, 3, 3, 0.0
  3037, 3, 3, 0.0
  3040, 3, 3, 0.0
  3043, 3, 3, 0.0
  3046, 3, 3, 0.0
  3049, 3, 3, 0.0
  3052, 3, 3, 0.0
  3055, 3, 3, 0.0
  3058, 3, 3, 0.0
  3061, 3, 3, 0.0
  3064, 3, 3, 0.0
  3067, 3, 3, 0.0
  3070, 3, 3, 0.0
  3073, 3, 3, 0.0
  3076, 3, 3, 0.0
  3079, 3, 3, 0.0
  3082, 3, 3, 0.0
  3085, 3, 3, 0.0
  3088, 3, 3, 0.0
  3091, 3, 3, 0.0
  3094, 3, 3, 0.0
  3097, 3, 3, 0.0
  3100, 3, 3, 0.0
  3103, 3, 3, 0.0
  3106, 3, 3, 0.0
  3109, 3, 3, 0.0
  3112, 3, 3, 0.0
  3115, 3, 3, 0.0
  3118, 3, 3, 0.0
  3121, 3, 3, 0.0
  3124, 3, 3, 0.0
  3127, 3, 3, 0.0
  3130, 3, 3, 0.0
  3133, 3, 3, 0.0
  3136, 3, 3, 0.0
  3139, 3, 3, 0.0
  3142, 3, 3, 0.0
  3145, 3, 3, 0.0
  3148, 3, 3, 0.0
  3151, 3, 3, 0.0
  3154, 3, 3, 0.0
  3157, 3, 3, 0.0
  3160, 3, 3, 0.0
  3163, 3, 3, 0.0
  3166, 3, 3, 0.0
  3169, 3, 3, 0.0
  3172, 3, 3, 0.0
  3175, 3, 3, 0.0
  3178, 3, 3, 0.0
  3181, 3, 3, 0.0
  3184, 3, 3, 0.0
  3187, 3, 3, 0.0
  3190, 3, 3, 0.0
  3193, 3, 3, 0.0
  3196, 3, 3, 0.0
  3199, 3, 3, 0.0
  3202, 3, 3, 0.0
  3205, 3, 3, 0.0
  3208, 3, 3, 0.0
  3211, 3, 3, 0.0
  3214, 3, 3, 0.0
  3217, 3, 3, 0.0
  3220, 3, 3, 0.0
  3223, 3, 3, 0.0
  3226, 3, 3, 0.0
  3229, 3, 3, 0.0
  3232, 3, 3, 0.0
  3235, 3, 3, 0.0
  3238, 3, 3, 0.0
  3241, 3, 3, 0.0
  3244, 3, 3, 0.0
  3247, 3, 3, 0.0
  3250, 3, 3, 0.0
  3253, 3, 3, 0.0
  3256, 3, 3, 0.0
  3259, 3, 3, 0.0

** 5000 N total in +X over 102 nodes = 49.0196 N/node
*CLOAD
  3160, 1, 49.019608
  3161, 1, 49.019608
  3162, 1, 49.019608
  3163, 1, 49.019608
  3164, 1, 49.019608
  3165, 1, 49.019608
  3166, 1, 49.019608
  3167, 1, 49.019608
  3168, 1, 49.019608
  3169, 1, 49.019608
  3170, 1, 49.019608
  3171, 1, 49.019608
  3172, 1, 49.019608
  3173, 1, 49.019608
  3174, 1, 49.019608
  3175, 1, 49.019608
  3176, 1, 49.019608
  3177, 1, 49.019608
  3178, 1, 49.019608
  3179, 1, 49.019608
  3180, 1, 49.019608
  3181, 1, 49.019608
  3182, 1, 49.019608
  3183, 1, 49.019608
  3184, 1, 49.019608
  3185, 1, 49.019608
  3186, 1, 49.019608
  3187, 1, 49.019608
  3188, 1, 49.019608
  3189, 1, 49.019608
  3190, 1, 49.019608
  3191, 1, 49.019608
  3192, 1, 49.019608
  3193, 1, 49.019608
  3194, 1, 49.019608
  3195, 1, 49.019608
  3196, 1, 49.019608
  3197, 1, 49.019608
  3198, 1, 49.019608
  3199, 1, 49.019608
  3200, 1, 49.019608
  3201, 1, 49.019608
  3202, 1, 49.019608
  3203, 1, 49.019608
  3204, 1, 49.019608
  3205, 1, 49.019608
  3206, 1, 49.019608
  3207, 1, 49.019608
  3208, 1, 49.019608
  3209, 1, 49.019608
  3210, 1, 49.019608
  3211, 1, 49.019608
  3212, 1, 49.019608
  3213, 1, 49.019608
  3214, 1, 49.019608
  3215, 1, 49.019608
  3216, 1, 49.019608
  3217, 1, 49.019608
  3218, 1, 49.019608
  3219, 1, 49.019608
  3220, 1, 49.019608
  3221, 1, 49.019608
  3222, 1, 49.019608
  3223, 1, 49.019608
  3224, 1, 49.019608
  3225, 1, 49.019608
  3226, 1, 49.019608
  3227, 1, 49.019608
  3228, 1, 49.019608
  3229, 1, 49.019608
  3230, 1, 49.019608
  3231, 1, 49.019608
  3232, 1, 49.019608
  3233, 1, 49.019608
  3234, 1, 49.019608
  3235, 1, 49.019608
  3236, 1, 49.019608
  3237, 1, 49.019608
  3238, 1, 49.019608
  3239, 1, 49.019608
  3240, 1, 49.019608
  3241, 1, 49.019608
  3242, 1, 49.019608
  3243, 1, 49.019608
  3244, 1, 49.019608
  3245, 1, 49.019608
  3246, 1, 49.019608
  3247, 1, 49.019608
  3248, 1, 49.019608
  3249, 1, 49.019608
  3250, 1, 49.019608
  3251, 1, 49.019608
  3252, 1, 49.019608
  3253, 1, 49.019608
  3254, 1, 49.019608
  3255, 1, 49.019608
  3256, 1, 49.019608
  3257, 1, 49.019608
  3258, 1, 49.019608
  3259, 1, 49.019608
  3260, 1, 49.019608
  3261, 1, 49.019608

*NODE PRINT, NSET=NALL
U
*EL PRINT, ELSET=EALL
S
*NODE FILE, NSET=NALL
U
*EL FILE, ELSET=EALL
S

*END STEP